 # Version information for this restart file 
 # current date 2023-12-18 16:30:38.136
 # current working dir /scratch/mj3313/comp-lab-class-2023/Week12/Runs/Water
 # Program compiled at                              Sat Dec 12 18:27:15 EST 2020
 # Program compiled on                                         cs001.nyu.cluster
 # Program compiled for                                                nyu-intel
 # Source code revision number                                       git:8c64c6e
 &GLOBAL
   PRINT_LEVEL  LOW
   PROJECT_NAME water_aimd_1ns_every0.5fs
   RUN_TYPE  MD
   WALLTIME 21600
 &END GLOBAL
 &MOTION
   &GEO_OPT
     OPTIMIZER  BFGS
     MAX_ITER  100
     MAX_DR     3.0000000000000001E-03
     &BFGS
     &END BFGS
   &END GEO_OPT
   &MD
     ENSEMBLE  NVT
     STEPS  2000
     TIMESTEP     4.9999999999999994E-01
     STEP_START_VAL  1939
     TIME_START_VAL     9.6949999999998624E+02
     ECONS_START_VAL    -1.1023558357480224E+03
     TEMPERATURE     3.0000000000000000E+02
     &THERMOSTAT
       TYPE  GLE
       REGION  MASSIVE
       &GLE
         NDIM  5
         A_SCALE     1.0000000000000000E+00
         A_LIST     1.8595758612559999E+02    2.7263853498399998E-01    1.1526100454610001E+01   -3.6414578262600003E+01 \
             2.3173375816020001E+02
         A_LIST    -2.7809524712060002E-01    8.5951591808710006E-05    7.2189048017650004E-01   -1.9844539343859999E-01 \
             4.2409257583420001E-01
         A_LIST    -1.4825808131210000E+01   -7.2189048017650004E-01    1.3590902121280000E+00    5.1498896280349999E+00 \
            -9.9949268450990001E+00
         A_LIST    -1.0372189126880000E+01    1.9844539343859999E-01   -5.1498896280349999E+00    2.6661910891169999E+01 \
             1.1507715495310000E+01
         A_LIST     2.1801346360420001E+02   -4.2409257583420001E-01    9.9949268450990001E+00   -1.1507715495310000E+01 \
             3.0958394565589998E+02
         &THERMOSTAT_ENERGY
              -2.7245497864646947E-03
              -2.3206012067989489E-03
              -1.4947257449672655E-03
               8.0084824812013261E-03
              -1.1438297539977417E-02
               2.3234886918339953E-03
              -7.4672501474944250E-04
              -6.2753254585872463E-03
               1.7152612958574388E-02
               2.5660127690659636E-03
               1.1831449831770553E-02
              -6.5506070259766286E-05
              -2.8181468301884580E-03
              -9.3002712637858566E-03
               1.6341982730437099E-03
              -1.0749409086995251E-02
               1.5962212694412881E-02
              -6.5906011296271204E-04
               9.3346536970031913E-03
              -6.6021741121620563E-03
              -2.6363989767661982E-03
               9.8833285531611239E-04
              -7.5406968042830303E-03
              -6.2369904961543810E-03
               2.3812301798310496E-03
               3.3364431375031930E-03
               1.8325773304225389E-03
               1.5619612465140598E-03
               1.1736626129113980E-02
               1.7749825221539364E-03
               1.0282628709226034E-03
              -3.5012320923247940E-03
               3.8503173623544661E-03
               5.5542972789458011E-03
              -1.7320851714121264E-02
               1.4410499614887851E-02
               1.6937732576579813E-03
              -3.2548844972219320E-03
               4.8363024167072540E-04
               8.0536838116742251E-03
              -5.7839534518183463E-03
              -8.7366560481109863E-03
               9.4739704875356039E-03
               2.8380032429912304E-03
              -4.1231220898255098E-03
               3.8314775874633777E-03
              -2.1938971552950279E-03
               7.3821601338026170E-03
               5.1969813378387403E-03
               1.5158038298148694E-03
              -2.6268102917711834E-03
               3.7303835439274537E-03
              -9.4398267996912526E-03
               4.8371135424384818E-04
              -6.4275426151447004E-03
               5.5341227947475740E-03
              -3.3357003899478683E-03
              -5.2180867593060124E-03
               2.4822922063030904E-04
               1.7163635621831076E-02
               3.9209227211562243E-04
              -9.2463643633667984E-03
               1.6632225818281204E-02
              -5.1323042517227536E-03
               3.4587230791886655E-03
               1.3002314015183056E-03
              -8.3890114961261263E-03
               5.1499082823444481E-03
               2.1001532233342821E-02
              -5.8931442100384427E-04
              -3.4227362140853623E-03
              -1.2559746927842702E-02
              -1.8151300570598641E-03
               1.2604500006796015E-03
              -2.1526310497723268E-03
              -9.9047473416266525E-03
               2.7386924727587887E-03
               2.6207187965584999E-03
               7.2801099464397962E-03
              -1.0613365600915433E-02
               2.1413506013236334E-02
              -3.8862709453653934E-03
               1.4554471041647117E-03
               2.1392672910456956E-03
               5.2916709932836290E-04
               8.9948607768902851E-03
               3.9516143827971299E-03
              -8.4080683235491400E-03
               3.9496938209066419E-03
               1.8937519095503456E-03
               2.3650719934893453E-03
              -1.0121496759293224E-02
               2.5151994110321203E-03
              -5.6855147709584455E-03
              -8.2979691606576370E-03
               3.9637988845541644E-03
               8.3226050132577147E-03
               3.3123232707235337E-03
               4.6832261801370090E-03
               8.2051877643600838E-04
              -1.9764780233592866E-03
              -9.5612509755965448E-03
               2.9418504655446655E-03
              -1.8441915235193867E-03
              -2.4342539985259108E-03
               1.4137441257548140E-02
              -4.5832543970349940E-04
              -4.7871518195771916E-03
               2.6501470556426565E-03
              -5.8273638006197028E-03
               3.5573445133869606E-03
               6.3712540906335699E-03
              -4.7497317985946879E-03
              -5.9561793246456374E-03
               9.6830136843273091E-03
               3.6547107973505712E-03
              -1.4644507325460267E-02
               1.6890493433470129E-03
               4.7926885667960812E-03
               7.4067392224610104E-03
               8.5718819640567268E-03
              -3.7720854711683536E-03
              -1.6025423779314971E-03
               5.7162927770108441E-03
              -9.7484308607272835E-03
              -2.4197858778872384E-03
               3.2381709952635368E-03
               7.8895468984464454E-04
              -2.5533242138198486E-03
               5.0857421115053023E-03
              -2.1724545631783185E-03
               6.0430729675468291E-03
              -1.1613024347116299E-02
               8.2293552413126424E-03
               2.0225294417943566E-03
               4.9770343900232611E-05
              -2.1536666977672063E-03
              -6.4715828155829996E-03
               1.8950659541190776E-03
              -3.4780102198209957E-03
               1.6453738943707878E-03
              -1.5056040975791876E-03
               1.8567689664397473E-02
              -3.3755580787684881E-03
              -7.8192916068894735E-03
              -2.9921380849141699E-04
               7.2810970407713518E-03
               1.1210031283282795E-02
              -2.0273202118190352E-04
              -6.2003379899748627E-03
              -1.4941897275155491E-02
               7.6221073594053878E-03
              -2.1814565745115384E-04
              -6.4315559582586463E-03
               9.2467034900070664E-03
              -2.5779327428059320E-03
              -4.0727194281737298E-03
               5.7101912558239643E-03
               6.9334249255873317E-04
              -1.1821478755461186E-04
              -1.0882297879213928E-02
              -6.1863892251255341E-03
               3.3775513157290223E-04
               1.3871268986159905E-03
               8.9675312479764770E-03
               1.3246868690054260E-02
               1.2149257427108893E-03
              -1.8046503793272956E-02
              -3.6548173119286694E-03
               1.5039731698107045E-02
              -6.7847229980607373E-03
              -3.0424237211020416E-03
               1.9471186411085103E-03
              -6.6415860418655116E-03
              -3.8495273169049087E-03
               3.1743000526710430E-03
              -1.1634347565745502E-02
               1.7922839270270302E-03
               6.3052106475068514E-03
               1.0429453147786562E-02
              -2.9960155326583119E-03
              -1.2756440848587808E-03
               6.9108552442191046E-03
              -1.8153024689244471E-02
               1.2880601485536528E-02
               2.5450293670009109E-03
              -3.7461454805823788E-03
              -4.3356628038757853E-04
              -1.9923517017471679E-04
              -2.3703798868449625E-04
               3.5105454471764438E-03
              -9.0667872527653594E-04
              -1.0149849917766863E-02
               8.3843350568874753E-03
               9.0377514965872766E-03
              -9.4954542513600599E-03
              -7.6047255544289755E-03
               4.7301715085308694E-03
              -3.0948386764699642E-03
              -4.6442088034946696E-03
              -1.0170602426504039E-03
              -6.6133960772485790E-04
               1.7531073405140426E-02
              -9.4504265508300808E-03
              -6.8313407949974064E-03
               3.3897693636945924E-04
              -3.7875784168311870E-03
              -1.9016142173740882E-03
              -7.0252502398651130E-04
              -5.1436228834865526E-03
               1.2147913101069191E-02
              -6.4354625331846885E-03
               1.4768011393730920E-02
              -6.3140426009958847E-03
               6.0789140538833582E-03
              -2.2320193345115756E-03
              -1.5240403080582885E-02
               1.2217857977380113E-02
               2.7385143752651328E-03
              -1.8363592667319011E-02
              -3.8739601412152050E-04
              -3.6585192098113943E-04
              -1.6395235965933996E-03
               1.6257237203732969E-02
              -1.1822536644868903E-03
               1.2592864625295226E-03
               2.3473986957101385E-03
               1.6838664955429665E-03
               4.5582482803067891E-03
              -4.4726242502336304E-03
              -1.1347836219307865E-02
              -4.6239076405960136E-04
               1.1987517545656707E-02
              -3.4301502413431571E-03
               1.9352443343758914E-04
               4.1388383075477431E-03
               9.0387596309457257E-05
              -3.3722993559182728E-03
               1.1885411704391504E-02
               6.9346290302204636E-03
              -5.7739127000896910E-03
              -5.4836708268050970E-03
              -7.9467817805110874E-04
              -1.5292465957458482E-03
               2.7951615232485309E-03
               2.8199535769822034E-03
               6.9252400853113934E-03
              -5.5068301918153127E-03
               1.2550896713595973E-03
               2.9412552421246613E-03
               6.5442802347521044E-03
              -9.7414926000138659E-03
              -7.8695330255627288E-03
              -5.8964899062858879E-03
               6.4808633720226444E-03
              -2.1911094854490124E-04
               7.5591189391780375E-03
              -3.0327051131216727E-03
               1.3602079588065393E-02
              -2.0863795318519261E-02
               2.0905356437016090E-02
               6.0804430316817207E-04
               4.5223166284618574E-03
               2.1541148772092310E-03
               3.7504038272294510E-03
              -6.8473063094456783E-03
               9.6424644902890161E-05
              -5.7019392627283292E-03
               4.1238328396064796E-04
               6.6551069087181711E-03
              -9.4122189087442795E-04
              -4.6748514794888139E-03
              -1.4991149383015991E-03
               9.1772940818542585E-03
               6.0433013004889550E-03
               2.9343533612065532E-03
              -2.9674637330422287E-02
               2.1515844930597567E-02
              -5.6564017488295098E-03
               7.7205269765418154E-03
              -6.6405884040042565E-03
               1.1089791923291137E-03
               7.9638736304346400E-03
              -4.5881097996257640E-03
              -7.1090368651842159E-03
               9.7855585040306056E-04
               1.2776452162909579E-04
              -1.2359852851480871E-02
              -3.1485641759193732E-03
              -1.8832724522263717E-03
              -2.8692396118112111E-03
               1.3388463726157287E-02
              -1.9120639828204239E-03
              -8.0292516478729335E-03
               2.6471142712021036E-03
               1.1103992354253366E-02
              -1.2815431373421764E-02
              -1.2231147703326063E-03
              -3.3773632463790127E-03
               2.6710804393848160E-04
              -1.1520987241103774E-02
               4.9906286067290823E-03
               7.3454706119897148E-03
               1.3645130722056956E-03
               8.3924675086309332E-03
              -1.1826326008649147E-02
              -2.9874628302014204E-03
              -1.2511566791867372E-03
              -6.4283903465600385E-04
               1.6261926265547951E-02
              -7.5988562373584248E-03
              -6.7023488458682733E-03
              -1.5258725752289447E-03
               1.1549243434812633E-02
              -3.7358418518755382E-04
               1.0925355793174678E-02
               2.6747553935281151E-03
               3.8854669220940666E-03
              -8.8320144781195153E-03
               1.3876330438804638E-03
               1.3162412975623311E-02
              -1.6092394769310889E-02
              -1.4101152660032520E-02
               1.6067548765002281E-02
              -6.4202143426879540E-03
               9.8552944673696834E-03
               1.6210820625770430E-03
               4.1858009488826729E-03
              -1.7892416960103939E-03
              -2.0058632956382392E-03
              -1.8841741375359236E-03
              -1.7367033260192510E-02
               9.3995029627563821E-03
              -2.6381120753699288E-03
               5.7872318710044347E-03
               5.9171154146747968E-03
               1.4469021990888006E-02
               3.7605980799958320E-03
              -1.3406476297749610E-02
               1.1367009049656446E-02
               1.2072327245546410E-03
              -7.6186138259450942E-03
               1.9919752030317806E-03
              -6.4489350838960128E-03
              -1.5708463602120879E-03
              -5.7040628094947544E-03
               1.4782185550984998E-03
               9.2408389065519182E-05
               8.8792389234599468E-03
               3.9354532571410344E-03
               2.1968953705465473E-04
               4.8245846573855191E-03
              -7.9132376439590563E-03
              -2.8121466119986256E-03
              -1.4530759792168856E-02
               1.5130745539144976E-02
               2.7634861427710184E-03
              -8.7981986926247355E-03
              -1.2043994430309814E-02
               1.3270480892001833E-02
               8.2331221858661190E-04
              -4.1363910618253709E-03
              -1.1554634360497253E-02
              -6.5917225967963289E-03
              -3.9134629733828209E-03
               1.6869586607481210E-02
               1.0146758069965126E-02
              -5.4304264657876605E-03
              -1.2416021569511252E-02
              -3.5698024531716616E-03
               3.1890885356224237E-03
              -2.9762057669693470E-03
               3.1437466513647085E-03
               1.0784350023314787E-02
              -4.6970135588679483E-03
               6.7309098880644308E-04
               4.5424854929419283E-03
              -8.6309347690480126E-03
              -2.0113069320015949E-03
               5.7097549581482249E-03
               1.5564336137341929E-03
               1.6383294456085869E-04
               2.1146906258146907E-02
              -4.9600103918382701E-03
              -2.0420069921108501E-02
               8.0907440416579206E-03
               2.1492486771671217E-03
              -5.1588556583457993E-03
              -4.0726420556370709E-03
              -8.5726868352594879E-05
              -8.6191154690178906E-03
               2.0270489175928975E-02
              -2.4193349136169130E-03
              -5.3184754739856576E-03
              -2.3291699701205280E-03
               9.2171033112380400E-05
              -5.9215564715592393E-03
               7.4779723137219827E-03
               4.3046456449314955E-03
              -2.6860912176637941E-02
               1.4581752026770681E-02
               7.5150262287121388E-03
              -9.2766380268722061E-03
               5.2963538276164946E-03
               2.2006822028928851E-02
              -2.5002937211060321E-05
               7.3806505531234905E-03
               6.8090424990146659E-03
              -2.9050529343901568E-03
               5.4570443150756872E-03
               2.3569845248482602E-03
               3.3525943976160264E-03
              -1.2654920820050099E-02
               6.2636768527523680E-03
              -5.1746356541861067E-03
              -1.0408702066823554E-03
               3.1754624387400144E-03
              -4.5514612464778873E-03
              -8.2135919048439119E-04
               7.9541436843601886E-03
              -2.0915463423943313E-04
              -3.6630522112545412E-03
               3.8661826444177138E-03
              -4.2031705997679569E-04
               5.1022681013715107E-04
               1.0039113970481601E-03
              -9.5534853720860239E-03
               5.6049169838368476E-03
              -7.3131269037017572E-03
               4.5521864894149345E-03
               7.6624302538183687E-03
              -1.0888346682477200E-02
              -4.0877434964674986E-03
              -6.7962238138101223E-03
               6.2980454748973120E-03
              -1.1848309712242865E-02
              -2.8482626011522272E-04
               1.1356528879736176E-02
              -6.6266224648498301E-03
               1.2000632183906656E-02
              -1.0017603132772895E-02
              -1.4529330476184850E-02
              -1.7289634133048812E-03
               4.9625035919655105E-03
              -1.0595336002979351E-02
              -7.7361903244418514E-03
               1.7712583521269003E-03
               6.5582380197606307E-03
               1.6305217671696213E-02
              -9.7280271124965748E-03
              -4.5599990800086832E-03
              -6.2873088542807366E-03
               2.9529595823487411E-03
               5.9935146338820728E-03
              -1.1757303864757094E-02
              -7.3677296744264651E-03
               2.2297575975145485E-02
               4.4307635566772719E-03
              -1.4210709504026715E-02
              -5.2896310929611071E-03
               3.1123738382472167E-03
              -2.0752115432748032E-03
               6.9458265211193989E-03
               1.2755674554723191E-04
              -4.4604826462204584E-04
               8.5746389669503313E-03
              -1.1452978144343384E-02
               1.1609123289578740E-03
              -3.5419969544000199E-03
               1.1386334081399349E-02
               1.6936073206206827E-03
               6.2157284227494121E-03
              -1.1086728610036364E-03
              -1.6389597985506724E-03
              -4.9399871107746358E-03
               8.4343015043621995E-03
               9.1208765671953549E-03
               9.0751898554863463E-05
              -2.8713733956872455E-03
              -1.5478703288407351E-04
              -7.2150918655458102E-03
               8.0626323594017116E-03
               2.2648414464632046E-03
               9.0278554902073396E-03
              -7.1647548708812306E-03
              -1.4160978169245103E-03
              -3.2952498699438545E-03
              -2.9362801298522955E-03
              -3.6941564869508070E-03
              -9.3864513281913112E-04
              -2.4018145581735538E-03
               2.4491897307695708E-03
               7.3822573261314549E-03
               6.1071044026384368E-03
              -1.3195529776743632E-02
               3.1875148025301246E-03
               1.5467284408553553E-04
               1.4747907953462978E-03
               2.3089129289843953E-03
               8.0013627777159070E-03
               1.9605357481933981E-03
               1.4388804914788765E-03
              -1.1824655929844054E-02
              -7.9061440884504453E-03
               4.9597319820055569E-03
              -9.2858045746487001E-03
               1.1692274792900015E-03
               2.7900822777497348E-03
              -2.0308264039473121E-03
              -5.4961543321088019E-04
              -1.1274432462956843E-03
               8.7686284375355569E-03
              -2.6533253411927748E-03
              -2.5915819810977746E-03
               1.4814894879488106E-03
              -4.6288137040978233E-03
              -7.7996104769608183E-03
              -3.9506132936518498E-03
               6.6600039152011486E-03
               5.6536901498943906E-03
               3.1813463968626433E-05
              -1.0262519159593156E-02
              -1.2790306052669337E-02
               1.5236574153689942E-02
               3.5239572183421355E-03
               6.5573906407264022E-03
              -5.5361307249686496E-03
              -1.0337158893565903E-02
               7.2880852120903112E-03
              -2.3742657703277811E-03
              -1.3055959331431157E-02
              -3.5596074480280706E-03
              -8.4074392053595758E-03
              -4.6393757092603278E-04
              -3.2208143170085954E-03
               1.2993788284809404E-02
               5.4117042500898922E-03
               1.1348204772666205E-03
              -7.2436551427834265E-03
              -2.7511455808498499E-04
              -1.2951268590844628E-03
               3.4472396480709649E-03
               1.7978024442863690E-03
               5.9929764830337724E-03
              -4.2642339272986798E-03
               9.7942031353654736E-03
               7.9513669619543318E-03
               1.3775105480315416E-03
              -2.4021878669813466E-03
               4.1846141998523058E-04
               2.5363219094509896E-03
              -2.6311622853608354E-04
               5.4963272517668544E-03
               1.3594747974040302E-02
              -1.1124254022431111E-02
              -1.2231616859209591E-02
              -3.2587293571254596E-03
               1.0992170318144978E-02
              -2.1913454793977423E-03
               2.1973249102922180E-03
              -3.4344429686332064E-04
              -7.8853078776349658E-03
               1.0944512046720853E-02
              -2.5796910680525990E-03
              -3.0378340200008292E-03
               1.1203665697288230E-02
               5.4718123548768765E-03
              -1.2323205965691071E-03
               6.4949189402176873E-03
              -4.9342857845456707E-03
              -1.0029854530489249E-02
               3.7974599704962593E-03
              -1.0628544579535811E-03
               1.2374343500904182E-03
               1.4651542171932063E-03
              -4.5568284906815195E-03
         &END THERMOSTAT_ENERGY
         &RNG_INIT
Wiener process for Thermostat # 1        1 F T T   1.1748092153563103E+00        2295364324.0        1411728203.0         530606256.0        3503201271.0        2076127404.0        1554351611.0             12345.0             12345.0             12345.0             12345.0             12345.0             12345.0             12345.0             12345.0             12345.0             12345.0             12345.0             12345.0
Wiener process for Thermostat # 2        1 F T T   9.1577642813601062E-02         467685975.0        2915460266.0        2203813866.0        3870349108.0          63336584.0         566535173.0        3692455944.0        1366884236.0        2968912127.0         335948734.0        4161675175.0         475798818.0        3692455944.0        1366884236.0        2968912127.0         335948734.0        4161675175.0         475798818.0
Wiener process for Thermostat # 3        1 F T T  -1.5529056642589342E-01        1879517989.0        4254773936.0        2466174576.0        1854173809.0        2341986406.0        3699660794.0        1015873554.0        1310354410.0        2249465273.0         994084013.0        2912484720.0        3876682925.0        1015873554.0        1310354410.0        2249465273.0         994084013.0        2912484720.0        3876682925.0
Wiener process for Thermostat # 4        1 F T T   1.0570992232045609E-01        1489327898.0        1631204197.0        3012499541.0        3103381956.0        3667487860.0         286136806.0        2338701263.0        1119171942.0        2570676563.0         317077452.0        3194180850.0         618832124.0        2338701263.0        1119171942.0        2570676563.0         317077452.0        3194180850.0         618832124.0
Wiener process for Thermostat # 5        1 F T T  -1.9636122083930632E+00        3545677200.0        1789838352.0        2366002712.0        2991967764.0          75379059.0        2714772519.0        1597262096.0        3906379055.0        3312112953.0        1016013135.0        4099474108.0         275305423.0        1597262096.0        3906379055.0        3312112953.0        1016013135.0        4099474108.0         275305423.0
Wiener process for Thermostat # 6        1 F T T  -2.7501042599320902E-01        3585694717.0        1364231148.0        2402311762.0        2115585965.0         855937527.0        1703553749.0          97147054.0        3131372450.0         829345164.0        3691032523.0        3006063034.0        4259826321.0          97147054.0        3131372450.0         829345164.0        3691032523.0        3006063034.0        4259826321.0
Wiener process for Thermostat # 7        1 F T T   3.1262877661027372E-01        2138141907.0        3986240390.0        1473325548.0        1580209513.0        1741084019.0        3534687747.0         796079799.0        2105258207.0         955365076.0        2923159030.0        4116632677.0        3067683584.0         796079799.0        2105258207.0         955365076.0        2923159030.0        4116632677.0        3067683584.0
Wiener process for Thermostat # 8        1 F T T  -1.5318821417938691E+00        2439987470.0          45948975.0        2415124402.0        4214080353.0        2513608837.0        1516711635.0        3281794178.0        2616230133.0        1457051261.0        2762791137.0        2480527362.0        2282316169.0        3281794178.0        2616230133.0        1457051261.0        2762791137.0        2480527362.0        2282316169.0
Wiener process for Thermostat # 9        1 F T T  -4.2396696520697241E-01        3525935363.0        2562480634.0         956065722.0        3017304371.0        1015863617.0        3303191224.0        3777646647.0        1837464056.0        4204654757.0         664239048.0        4190510072.0        2959195122.0        3777646647.0        1837464056.0        4204654757.0         664239048.0        4190510072.0        2959195122.0
Wiener process for Thermostat # 10       1 F T T   1.3004479617962488E+00        1733880251.0         396787930.0        3309626341.0        1444200933.0        1168399780.0        2577453242.0        4215590817.0        3862461878.0        1087200967.0        1544910132.0         936383720.0        1611370123.0        4215590817.0        3862461878.0        1087200967.0        1544910132.0         936383720.0        1611370123.0
Wiener process for Thermostat # 11       1 F T T  -5.8332332910344509E-01          18239154.0        1576205575.0        1627521810.0        3749062971.0          43239982.0        2686583923.0        1683636369.0         362165168.0         814316280.0         869382050.0         980203903.0        2062101717.0        1683636369.0         362165168.0         814316280.0         869382050.0         980203903.0        2062101717.0
Wiener process for Thermostat # 12       1 F T T  -2.8289802119096052E-02        1569555357.0        1516950295.0         113879895.0         305323342.0        3678854211.0        1327895895.0         272317999.0         166758548.0         310112982.0         201045826.0        1680231254.0         118290799.0         272317999.0         166758548.0         310112982.0         201045826.0        1680231254.0         118290799.0
Wiener process for Thermostat # 13       1 F T T   8.6083796728521200E-01        1282674163.0        3766678813.0         165149217.0        1298127032.0          95074010.0        1974119212.0        2245755202.0        1652682525.0        2865544364.0         721509566.0         209733568.0         592362218.0        2245755202.0        1652682525.0        2865544364.0         721509566.0         209733568.0         592362218.0
Wiener process for Thermostat # 14       1 F T T  -5.8866191496220499E-01         830526886.0         388498471.0        2900177171.0         740728388.0         179716740.0        4052009412.0        3003961408.0        3529909391.0          14538032.0        3603919910.0         566682685.0        1235016484.0        3003961408.0        3529909391.0          14538032.0        3603919910.0         566682685.0        1235016484.0