 # Version information for this restart file 
 # current date 2023-12-18 12:11:42.964
 # current working dir /scratch/mj3313/comp-lab-class-2023/Week12/Runs/Water
 # Program compiled at                              Sat Dec 12 18:27:15 EST 2020
 # Program compiled on                                         cs001.nyu.cluster
 # Program compiled for                                                nyu-intel
 # Source code revision number                                       git:8c64c6e
 &GLOBAL
   PRINT_LEVEL  LOW
   PROJECT_NAME water_aimd_1ns_every0.5fs
   RUN_TYPE  MD
   WALLTIME 21600
 &END GLOBAL
 &MOTION
   &GEO_OPT
     OPTIMIZER  BFGS
     MAX_ITER  100
     MAX_DR     3.0000000000000001E-03
     &BFGS
     &END BFGS
   &END GEO_OPT
   &MD
     ENSEMBLE  NVT
     STEPS  2000
     TIMESTEP     4.9999999999999994E-01
     STEP_START_VAL  500
     TIME_START_VAL     2.4999999999999795E+02
     ECONS_START_VAL    -1.1023558357480224E+03
     TEMPERATURE     3.0000000000000000E+02
     &THERMOSTAT
       TYPE  GLE
       REGION  MASSIVE
       &GLE
         NDIM  5
         A_SCALE     1.0000000000000000E+00
         A_LIST     1.8595758612559999E+02    2.7263853498399998E-01    1.1526100454610001E+01   -3.6414578262600003E+01 \
             2.3173375816020001E+02
         A_LIST    -2.7809524712060002E-01    8.5951591808710006E-05    7.2189048017650004E-01   -1.9844539343859999E-01 \
             4.2409257583420001E-01
         A_LIST    -1.4825808131210000E+01   -7.2189048017650004E-01    1.3590902121280000E+00    5.1498896280349999E+00 \
            -9.9949268450990001E+00
         A_LIST    -1.0372189126880000E+01    1.9844539343859999E-01   -5.1498896280349999E+00    2.6661910891169999E+01 \
             1.1507715495310000E+01
         A_LIST     2.1801346360420001E+02   -4.2409257583420001E-01    9.9949268450990001E+00   -1.1507715495310000E+01 \
             3.0958394565589998E+02
         &THERMOSTAT_ENERGY
              -5.0135734777091321E-03
              -5.3873679064590037E-04
              -1.3717603081109782E-03
               2.2392162886200671E-03
              -5.5006263902412835E-03
               6.8038941725775716E-03
              -3.4504609114263092E-03
              -3.3320736869121041E-03
               4.9215557397815175E-03
               5.8394368915215848E-04
               6.7959962845767089E-03
              -3.2281847401829217E-03
               1.5076288886498720E-03
               9.0792944651250148E-05
              -2.2353808992705941E-03
              -4.0611450814475860E-03
               5.5415582665631850E-03
              -4.0424075869789121E-03
               5.5483172535065288E-03
              -2.7439077893854974E-03
               7.2956358350329865E-04
              -3.6957605456538782E-03
              -1.5978770280104923E-03
               2.8558354127980988E-03
              -1.0470037049095317E-03
              -2.6818208901294282E-03
              -1.2328586032073823E-04
               3.8731788969323510E-03
               2.1697077496841705E-03
               6.0611384774495348E-04
              -5.4143734422520164E-03
               2.7314948241747468E-03
               3.8176574909847810E-03
               2.0804586210465502E-04
              -2.1773553076463725E-03
               4.1773804585370604E-03
              -1.3914435909254395E-03
               9.8055112701792317E-04
               7.2162321273201214E-04
              -3.0301615673750228E-03
              -8.1856705945389631E-04
              -1.1793756555331571E-03
               6.1025252243788379E-04
               2.4130561815675572E-03
              -5.7909316980511837E-03
               3.1027094132084969E-03
              -4.3123418674802076E-04
               3.3738165796445463E-03
              -4.2064479281733718E-03
              -1.0298414816646386E-03
               1.6521801299056546E-03
              -6.4926703968719310E-03
               1.2413519125373321E-03
               6.9915294239243459E-03
              -5.4841586684786737E-03
               3.2559862269110041E-03
              -7.6460145999236815E-04
              -1.8017113552795563E-03
               1.6245314121232240E-03
               2.8914987666034796E-03
               1.7255143076447892E-03
               2.2432773753216471E-03
               4.1688555471381195E-03
               1.6651550215544739E-03
              -1.6462307570438317E-03
              -2.2838600413425877E-03
              -5.3441448212745218E-03
               1.5088147217066422E-03
               2.0331210716308273E-03
               4.9022795302371405E-03
              -1.2233953287349606E-03
              -1.6682848316097185E-03
              -1.1490580611832144E-03
               1.7196152624301018E-03
              -1.7659103965949391E-03
              -4.5068216173449350E-03
               3.7570886901032536E-03
               1.7227902693558320E-03
               6.3484143848289917E-03
              -3.0961844315347282E-03
              -2.5707878989747620E-03
              -6.5120413564992820E-04
               1.3604051901134283E-03
              -3.5556006601339214E-03
               2.1994993300038950E-03
              -4.5652028421243698E-04
              -4.8814864788110004E-03
               1.8851596450107702E-03
               2.6028745832363913E-03
              -2.1662733039140014E-03
               3.2184776642193136E-03
              -4.9833948971726482E-03
               2.0885054037735884E-03
              -3.2438017805457272E-03
              -7.0688110571560320E-03
               3.6288819051549116E-03
               3.1288929337411719E-03
               2.5008297311869575E-04
               1.0857210318076863E-03
               8.4747767310737769E-05
              -7.9719357543583187E-04
              -3.8146083765406287E-03
              -1.8548076883972977E-03
              -1.4247245709628935E-03
               1.9521451399717141E-03
               5.8170396586589377E-03
              -1.1298234685294822E-03
              -2.5570013910709262E-03
               4.2317308424592937E-03
              -3.6672278219842839E-03
               3.6189014435181613E-03
              -8.0597693102938870E-04
               2.5424835565665866E-03
               1.0549961790760367E-03
              -1.9097332824194392E-03
               1.0314226188471937E-02
              -1.5302531287922630E-02
               2.3311586882532086E-03
              -1.9589007825519551E-04
               7.3244962537505624E-05
               3.0521502389625013E-03
               3.1583902499001892E-03
              -3.3108743334821097E-03
              -3.0798698332740984E-03
              -5.1361555405013935E-03
               1.8241000089195792E-03
              -4.7060153362735396E-04
               3.1987362764276973E-03
               3.6212358594856597E-03
               1.3105817010875341E-03
              -6.4475019088356973E-04
               9.8660096650263381E-04
              -1.3420723764669569E-03
               2.6718081100514557E-03
              -3.4385753998730315E-03
               2.8197638084067667E-04
              -2.6949410377896375E-03
              -2.6235133712229435E-04
               6.7860697648169065E-04
              -5.3220303568816581E-03
               7.7819084163335845E-03
               1.0677254839258020E-03
               9.8310048139735903E-04
              -1.6542170182129137E-03
              -7.3940252503616256E-04
              -2.7217688173099431E-03
               3.5712210613988228E-04
              -8.6850552050899278E-04
              -6.4206960372642161E-04
               6.5023669944229171E-03
              -2.6767732433844054E-03
               5.7306446802958641E-04
              -6.2201673470498151E-04
              -7.2251302716466411E-04
               9.5419649217921734E-04
              -1.7984151286307955E-03
               3.1566542775966870E-03
               1.7939515085623294E-03
              -3.3715988269515823E-03
               2.4425429408313970E-03
              -4.4372911461336411E-03
              -1.4139310858900475E-03
              -1.3088109908441108E-03
               1.7475027713399803E-04
               2.8195170590647857E-03
               5.9589710102216390E-03
               2.9702200036151177E-03
              -5.5296896620517814E-03
              -8.7290635952165657E-03
               1.0567993011419958E-02
               1.7318000552668845E-04
              -6.2281841591450046E-04
              -4.4995748885036781E-04
               2.8500075247271561E-03
              -2.4775972261438972E-03
               1.9955352140749987E-03
              -5.5285802062899248E-04
               4.3901899143394740E-03
               2.5466524452724092E-03
               6.0066083192407567E-04
              -1.7310925118737674E-03
               1.3260483479451614E-03
               2.6759931157979049E-03
              -8.1337055748414294E-03
               1.7560100098159520E-03
              -5.1841946862118417E-04
              -1.1965967195518323E-03
               7.6889295685279579E-03
              -2.7367518549914083E-03
              -1.2919997828243989E-03
               4.8121589086929078E-04
              -2.3773152867273008E-03
               4.3035191677298920E-03
              -2.0053503816332184E-03
               5.5739520043593838E-04
              -2.8557649183143206E-03
              -1.2399560764048817E-03
               8.8599555410953396E-04
              -2.0245919707264602E-03
              -1.1485285370385829E-04
               8.9444099000197117E-04
              -1.2442867192296414E-03
               6.2407824278005036E-03
              -3.8911152689293633E-04
              -7.5601434179410933E-03
              -9.9675678448749592E-04
              -2.7532886667953962E-03
              -7.3756497424439795E-04
              -1.4328565300523372E-03
               2.1174725790675721E-03
              -1.5367423650067108E-03
              -1.0439233981963211E-04
               6.4114403477513451E-03
              -7.0051749290444961E-03
               6.4346953654021372E-03
               6.2384112833313251E-04
              -2.9044032111575505E-03
               2.7995336066378210E-03
              -3.3523158774288010E-04
              -3.9987523869142085E-03
               1.6239643546903445E-03
              -1.6403036377191796E-03
              -2.6191566766625820E-03
              -1.4916183699695929E-04
              -1.1586367395471798E-03
               1.0787643882941549E-03
               8.2978920576639475E-04
               5.6310816284056223E-03
              -5.2037657854369056E-03
               4.0857426666269393E-03
              -1.0411125159640563E-02
               3.5596021692003111E-03
               8.7850352008122003E-03
              -3.6950841361497702E-03
              -1.1455616496925791E-03
              -1.9208516139302403E-03
              -2.8072132737682817E-03
               1.6094032998776164E-03
               4.8769207544571962E-03
               1.2354788417780701E-03
              -1.7842668647964548E-03
              -1.3448790686868134E-03
               3.6685941415102083E-03
               3.8349552530670006E-03
              -2.7804462920841982E-03
               2.1497923494646592E-03
              -1.1370133271331839E-03
              -1.3291536048956345E-03
               1.0838164762949603E-03
              -2.9695190046665908E-03
               1.5123393541857282E-03
               1.0193932021796807E-03
              -2.6813327307648048E-03
              -1.7902797556654331E-03
               1.3960361198630282E-03
              -6.6483533987379290E-03
               5.5470253166485413E-03
               1.2613779929430461E-03
               1.6712463736133962E-03
              -4.5430634970926448E-03
               5.2782787212682664E-03
               2.4421712826143576E-03
               1.1532856139572214E-03
               3.7374891292786875E-04
               2.8390671724518046E-04
              -5.3316676143297390E-03
              -2.0292277765386890E-03
               2.5413022764774157E-03
              -3.3821208309799729E-03
               3.4028053894641997E-03
              -1.2721935257621411E-03
              -1.9043569967940204E-03
               1.3336151870568138E-03
               2.9983949742315181E-03
               1.1955089574622953E-03
              -2.0404081267584389E-03
              -7.6760340313693064E-03
               2.9102107681477796E-03
              -4.8719309009923181E-03
               2.9351120434446517E-03
              -1.8576010322234105E-03
               3.9674849202062969E-03
               3.1813192094075401E-03
              -2.8466363772470401E-03
              -5.4270521360362178E-03
               3.1936525313122437E-03
              -1.3694348298961337E-03
              -3.8368931538034679E-03
              -3.3595937452279190E-03
               2.3850829133063032E-03
               1.0153713923200204E-03
               3.1344545550078943E-03
               2.2203597011717707E-03
              -2.5094112726710216E-03
               1.0103112403517264E-03
               1.6146323520677850E-03
              -6.7877943962012157E-03
              -1.8143133414230607E-03
               6.6933238193621716E-04
              -2.0872981775025327E-03
              -4.8896253895087602E-03
               5.3341468002374012E-03
               4.5921556865139235E-03
               2.8278480680534672E-04
               2.6188484983773008E-03
              -2.2089482449617779E-03
              -1.7090860078958249E-03
               9.6227561238008898E-04
               6.4384045762682144E-04
               4.6898802845624548E-03
              -5.8862958697425611E-04
              -9.4240715377412378E-03
               4.2496073643648376E-03
               5.1386816850555322E-03
               2.3658409852620622E-03
               4.2905153048712020E-03
               8.4635209984024423E-04
               4.0269326177136073E-03
              -2.0773721765083410E-03
              -2.3497120160682608E-03
               4.8493704081048689E-03
              -3.2562822174159755E-03
              -6.7216575140605908E-03
               9.3240392054892724E-03
              -8.8675005460222027E-04
               2.9396707347794353E-03
              -1.0460126846242373E-03
               3.8072753038738095E-03
               5.5281621813441518E-04
              -4.7731468500610734E-03
              -3.1673788830397487E-03
              -8.2684274144891566E-03
               8.3803396108435395E-03
              -3.1206303683109732E-04
               1.9239186496783334E-03
              -2.1213004536240047E-03
               1.1436865784995486E-02
               2.0811411756813461E-03
              -4.4274345115430250E-03
              -2.9543399900389803E-03
               3.5438974929505574E-03
               1.5528542872976937E-04
               1.9479854652018377E-03
               1.8639215879510710E-03
              -8.8603180253868092E-04
              -6.6589015167779668E-03
               6.9315198198503280E-03
               3.6023424200257203E-04
               1.2132382111515650E-04
              -5.8612033577607140E-03
               3.3551582481242070E-03
               2.2216182929368907E-03
              -6.2206887629369240E-03
               2.1543057756413073E-03
              -2.5083372256652471E-03
               7.4053601140094917E-03
              -4.4484112153856661E-03
              -4.5755671479649372E-04
              -5.6905302403781948E-03
               9.9296954802391337E-03
              -1.3470972825489014E-03
               2.3029170489333964E-04
              -4.6603537466201276E-03
              -7.9339800505727389E-03
               2.0443754707832923E-03
               1.1776807944472636E-02
               2.1383869456403229E-03
              -1.6901188280889349E-03
              -3.2718490368271805E-03
               6.3388365136058354E-04
               1.8329935384439819E-03
              -2.1509490082797580E-03
              -8.6374152243883957E-03
              -4.9897459078766587E-03
               6.0021152791884351E-03
              -3.1201311023716428E-03
               9.4354637862662698E-05
               6.5217695713249311E-03
              -2.2636387239318469E-03
              -1.0771742013313450E-03
              -1.6002671009281095E-03
               3.4823238177872783E-03
               9.7671994489425488E-03
              -8.6753262773246401E-05
              -1.0918147651342284E-02
               7.8803938322702730E-03
              -1.4047821456189187E-03
              -5.7370576465479682E-03
              -1.0399466384542417E-03
              -1.4190633100934400E-03
               2.4189456493646871E-03
               3.0891168761337860E-03
               7.6263201813205961E-04
               2.2067076534699089E-03
              -3.7951758423365647E-03
              -3.0433167088797122E-03
              -1.1154183682574317E-03
               2.6655164276733227E-03
              -2.5019013292453945E-04
              -2.7239675729223891E-03
              -1.4738602307248574E-03
               9.1971557298464283E-03
              -9.8577493157076274E-03
               3.0308652330725493E-03
               6.8965490287063230E-03
               3.3504314196036386E-04
              -1.4637178787476773E-03
               5.9415709859288882E-03
              -8.8633435976693230E-03
               2.0074064154085931E-03
               3.1392849248578791E-03
              -6.3289936420570566E-04
              -2.2281239043328359E-03
               5.3854345414928104E-03
              -6.4593333367538100E-03
              -3.9546277177404388E-03
               1.8864767140119897E-03
              -6.7355875001364751E-03
               2.4503925033606011E-03
               1.2453712888544235E-02
              -3.2789488289015705E-03
              -4.4109245587220888E-04
               2.1798858613909034E-03
               3.9425804365687857E-03
              -4.0275313799321942E-03
              -2.7115835706820277E-03
              -3.6115698865561451E-03
               3.5597060799039703E-03
               2.7448384271728686E-04
              -2.2964820439196586E-03
               6.4468480684423180E-04
              -3.6247974486339962E-03
               2.3475359480239484E-03
              -3.3839624735381773E-03
               9.2663811911999406E-04
              -6.6865422192716687E-03
               2.0721286022312415E-04
               5.2851117270950130E-03
               3.6148319252865655E-03
               4.4566779723901650E-03
              -3.5087662575492978E-03
              -6.0759826983400010E-03
              -3.0818797438444229E-04
               4.9759817358605019E-03
               9.0016862323881431E-04
               1.2150428459432434E-03
               5.9714193772888069E-04
              -4.9958881428541629E-03
               6.2372992977673238E-03
              -1.2219378118685622E-03
              -2.9182647584270987E-03
              -3.4467509457619004E-03
               4.9678849444961676E-03
              -3.2574162572642975E-03
              -4.7588112104876663E-03
               3.5871331950117642E-04
               8.8234472074471253E-03
              -8.8669682871150011E-04
              -2.9212036791440282E-03
              -5.1400652851937888E-04
               3.5127876776495518E-03
              -2.6458780962226058E-03
              -2.0994122995203648E-03
              -5.6227506290465919E-03
               2.1295646540588648E-03
               5.2313770627937929E-04
              -1.1837933204781506E-03
               3.2534539155443564E-03
              -4.4328184376275634E-03
               1.4715292067436620E-03
              -1.3671964719159154E-03
               6.5832297028412196E-03
               4.9162479341661092E-06
              -1.2617506241951748E-03
               8.1033896549829280E-03
               1.2909980523048738E-03
               3.6204213061397919E-03
              -2.3960761484380090E-04
              -2.5398273154937953E-03
               1.4072917059313721E-03
              -5.3785315922408089E-04
              -4.3287777008432192E-03
              -5.3082661026566979E-04
              -1.0294146886667434E-03
               3.1114828507468193E-04
               3.0270532875411628E-04
              -2.0082812101632035E-03
              -4.6187724189460776E-03
              -9.5000912504845860E-04
              -6.0248943039976650E-04
               2.2375777265242486E-04
              -1.6871761383170823E-03
              -1.0692225066326187E-02
               7.1325591789457151E-03
               1.7586659973294668E-03
               8.6454359348271041E-04
              -1.2932606868492737E-03
              -1.6037740065444001E-03
               3.3521084519944088E-03
               2.0350384427762691E-03
               3.1242517484809337E-03
               2.7920986881827996E-03
              -5.9561701163490625E-03
              -3.4292564669720586E-03
               1.4126386604020329E-05
              -2.7560692988678930E-03
               2.5816834760025993E-03
              -2.4142831591991154E-03
               9.6099718529668154E-04
               8.4891473178297253E-04
               5.3069353664498859E-04
               1.1809477662295686E-02
              -1.1944750567218864E-02
              -3.4735165463279215E-03
               1.5993464527688549E-03
               2.2361859312364763E-03
              -5.5453700903227736E-03
              -7.4540397023995452E-04
               7.2335007622705179E-04
              -1.7742453464881956E-03
               4.5577612299639277E-03
              -8.2588862522110992E-03
              -1.2704481550916899E-03
               5.6220074210312308E-03
               1.2698079342375805E-03
              -1.2420523127553511E-03
              -5.2106242977663338E-03
              -2.9687326172090334E-03
              -2.3654820012833833E-04
               3.7682044833923138E-03
              -4.1016653927159969E-03
              -5.9961609196487276E-04
              -3.1262632820944149E-03
              -3.5046216533850898E-03
               4.5270078108412557E-03
              -2.1193886943411643E-03
               2.1490596758204483E-03
              -1.7079675923940714E-03
              -2.0521434740875893E-03
              -1.0980180679645308E-03
              -1.8502718290255575E-03
               2.8298782051494901E-04
               3.7046935666726921E-03
               1.1958656940942291E-04
               2.9852746928594877E-03
              -2.0751880427935152E-03
               5.3989384432848430E-05
               3.6585070630513208E-03
              -3.6473691285182847E-03
              -1.0340359107750686E-03
              -2.5147645909653093E-03
              -4.8184733954852437E-03
               2.3150720257384405E-03
               1.0401868337814022E-03
               5.2173630965627335E-04
              -8.5468470135993922E-03
               2.7744086090011502E-03
               8.8579235573478625E-03
              -3.8418976452339474E-05
              -1.8935183436986954E-03
              -8.9259203280091281E-04
              -3.1243710635527051E-03
              -3.8968425723009893E-04
               4.1850498441344036E-03
              -4.5315491448156262E-04
               3.8905271681986472E-03
              -4.5696589080756946E-04
               2.6960266371083550E-03
              -1.1791382098000494E-03
              -2.9840203765203171E-03
              -5.8277544953815978E-03
               1.1035411244877411E-03
               4.5810598562546021E-03
               4.2346381557972143E-03
              -4.0542068671137769E-03
              -1.6995643772446352E-03
         &END THERMOSTAT_ENERGY
         &RNG_INIT
Wiener process for Thermostat # 1        1 F T T  -1.5505429657892764E+00         661802595.0        2026459976.0        3136775027.0        3268219721.0        1056216878.0        3744216088.0             12345.0             12345.0             12345.0             12345.0             12345.0             12345.0             12345.0             12345.0             12345.0             12345.0             12345.0             12345.0
Wiener process for Thermostat # 2        1 F T T   1.5766939834860993E-01        2521559082.0        1979391111.0        3972826820.0        2839528192.0        3960449033.0        3051881342.0        3692455944.0        1366884236.0        2968912127.0         335948734.0        4161675175.0         475798818.0        3692455944.0        1366884236.0        2968912127.0         335948734.0        4161675175.0         475798818.0
Wiener process for Thermostat # 3        1 F T T  -1.6802103653762466E+00        2464096834.0        3454226368.0         668358963.0        3607867155.0        2139338144.0        1695442074.0        1015873554.0        1310354410.0        2249465273.0         994084013.0        2912484720.0        3876682925.0        1015873554.0        1310354410.0        2249465273.0         994084013.0        2912484720.0        3876682925.0
Wiener process for Thermostat # 4        1 F T T  -9.2120442907176847E-01        3007810664.0         626544053.0           5688727.0        2019501767.0        4050809287.0        2188826537.0        2338701263.0        1119171942.0        2570676563.0         317077452.0        3194180850.0         618832124.0        2338701263.0        1119171942.0        2570676563.0         317077452.0        3194180850.0         618832124.0
Wiener process for Thermostat # 5        1 F T T   1.9586792436148486E+00        3119398129.0        2238966874.0        1731687009.0        1729823850.0        3912388439.0         182524877.0        1597262096.0        3906379055.0        3312112953.0        1016013135.0        4099474108.0         275305423.0        1597262096.0        3906379055.0        3312112953.0        1016013135.0        4099474108.0         275305423.0
Wiener process for Thermostat # 6        1 F T T  -2.2012851380256623E-01         527820745.0        2447393615.0         338698828.0         653439858.0         976211817.0        3944196308.0          97147054.0        3131372450.0         829345164.0        3691032523.0        3006063034.0        4259826321.0          97147054.0        3131372450.0         829345164.0        3691032523.0        3006063034.0        4259826321.0
Wiener process for Thermostat # 7        1 F T T  -1.2191095662093037E-02         167278661.0        2992638024.0        1197931920.0         124710794.0         889033703.0        2194094787.0         796079799.0        2105258207.0         955365076.0        2923159030.0        4116632677.0        3067683584.0         796079799.0        2105258207.0         955365076.0        2923159030.0        4116632677.0        3067683584.0
Wiener process for Thermostat # 8        1 F T T  -2.6373530393371375E-01        2923147749.0        3809475671.0         892364519.0        3114385888.0        3523415917.0        3402922821.0        3281794178.0        2616230133.0        1457051261.0        2762791137.0        2480527362.0        2282316169.0        3281794178.0        2616230133.0        1457051261.0        2762791137.0        2480527362.0        2282316169.0
Wiener process for Thermostat # 9        1 F T T  -1.2388913960989989E+00         276694386.0        3384434371.0        2194062143.0        3864498526.0        2498625561.0        4174179731.0        3777646647.0        1837464056.0        4204654757.0         664239048.0        4190510072.0        2959195122.0        3777646647.0        1837464056.0        4204654757.0         664239048.0        4190510072.0        2959195122.0
Wiener process for Thermostat # 10       1 F T T  -6.9271884074884071E-01         298842605.0        4183294382.0        3769908432.0        1623977651.0        3452521187.0         349927101.0        4215590817.0        3862461878.0        1087200967.0        1544910132.0         936383720.0        1611370123.0        4215590817.0        3862461878.0        1087200967.0        1544910132.0         936383720.0        1611370123.0
Wiener process for Thermostat # 11       1 F T T  -3.9199517781213300E-01        1183014876.0        2469777470.0        2706060047.0        1374668043.0         490283634.0         131761905.0        1683636369.0         362165168.0         814316280.0         869382050.0         980203903.0        2062101717.0        1683636369.0         362165168.0         814316280.0         869382050.0         980203903.0        2062101717.0
Wiener process for Thermostat # 12       1 F T T   1.2248374085476998E+00         744312290.0        1838623065.0        1895433531.0        2930723882.0        3034111406.0        1223209339.0         272317999.0         166758548.0         310112982.0         201045826.0        1680231254.0         118290799.0         272317999.0         166758548.0         310112982.0         201045826.0        1680231254.0         118290799.0
Wiener process for Thermostat # 13       1 F T T   1.6053528300026945E-02         341235087.0         365462780.0         607175623.0        3292057964.0        1611524565.0         256574977.0        2245755202.0        1652682525.0        2865544364.0         721509566.0         209733568.0         592362218.0        2245755202.0        1652682525.0        2865544364.0         721509566.0         209733568.0         592362218.0
Wiener process for Thermostat # 14       1 F T T   1.9177864877034673E-01        4070869957.0         930768838.0         917159503.0        2019387027.0        1778861740.0        4261924026.0        3003961408.0        3529909391.0          14538032.0        3603919910.0         566682685.0        1235016484.0        3003961408.0        3529909391.0          14538032.0        3603919910.0         566682685.0        1235016484.0