 # Version information for this restart file 
 # current date 2023-12-18 16:30:07.153
 # current working dir /scratch/mj3313/comp-lab-class-2023/Week12/Runs/Water
 # Program compiled at                              Sat Dec 12 18:27:15 EST 2020
 # Program compiled on                                         cs001.nyu.cluster
 # Program compiled for                                                nyu-intel
 # Source code revision number                                       git:8c64c6e
 &GLOBAL
   PRINT_LEVEL  LOW
   PROJECT_NAME water_aimd_1ns_every0.5fs
   RUN_TYPE  MD
   WALLTIME 21600
 &END GLOBAL
 &MOTION
   &GEO_OPT
     OPTIMIZER  BFGS
     MAX_ITER  100
     MAX_DR     3.0000000000000001E-03
     &BFGS
     &END BFGS
   &END GEO_OPT
   &MD
     ENSEMBLE  NVT
     STEPS  2000
     TIMESTEP     4.9999999999999994E-01
     STEP_START_VAL  1936
     TIME_START_VAL     9.6799999999998647E+02
     ECONS_START_VAL    -1.1023558357480224E+03
     TEMPERATURE     3.0000000000000000E+02
     &THERMOSTAT
       TYPE  GLE
       REGION  MASSIVE
       &GLE
         NDIM  5
         A_SCALE     1.0000000000000000E+00
         A_LIST     1.8595758612559999E+02    2.7263853498399998E-01    1.1526100454610001E+01   -3.6414578262600003E+01 \
             2.3173375816020001E+02
         A_LIST    -2.7809524712060002E-01    8.5951591808710006E-05    7.2189048017650004E-01   -1.9844539343859999E-01 \
             4.2409257583420001E-01
         A_LIST    -1.4825808131210000E+01   -7.2189048017650004E-01    1.3590902121280000E+00    5.1498896280349999E+00 \
            -9.9949268450990001E+00
         A_LIST    -1.0372189126880000E+01    1.9844539343859999E-01   -5.1498896280349999E+00    2.6661910891169999E+01 \
             1.1507715495310000E+01
         A_LIST     2.1801346360420001E+02   -4.2409257583420001E-01    9.9949268450990001E+00   -1.1507715495310000E+01 \
             3.0958394565589998E+02
         &THERMOSTAT_ENERGY
              -1.8093080783530930E-03
              -2.3019096504855322E-03
              -1.5323885843197614E-03
               7.9796811190476092E-03
              -1.1394553546683322E-02
               2.2332167320308878E-03
              -7.2790577140090303E-05
              -6.0223730248108063E-03
               1.7166412583587139E-02
               1.9377122773045269E-03
               1.1502958855759740E-02
              -2.4557310047700179E-04
              -2.7369175704778409E-03
              -8.8577883247632633E-03
               1.4652945719824055E-03
              -1.0445302374515087E-02
               1.6168399727300466E-02
              -2.9985787321419946E-04
               9.4259673334961130E-03
              -6.6616909853188019E-03
              -2.6964375475252520E-03
               1.3526964757646434E-03
              -7.3094503006877268E-03
              -5.6584866633959622E-03
               2.4336557751366734E-03
               3.2476186836061954E-03
               1.5601740473860240E-03
               1.6364829725577503E-03
               1.1625301430642020E-02
               1.8998946991997333E-03
               1.4651661421945844E-03
              -3.5420208123436540E-03
               3.5631762809998847E-03
               5.6439396145331559E-03
              -1.7291647420603667E-02
               1.4856784255685679E-02
               1.5813829597236193E-03
              -3.1398089256979506E-03
               3.2931512518446138E-04
               7.9750401346064623E-03
              -6.4896015754932115E-03
              -8.5657116874035370E-03
               9.1759110025389102E-03
               2.0954160789893282E-03
              -4.7518682162018353E-03
               3.4415335843449315E-03
              -1.4957996087924109E-03
               7.3029555269274269E-03
               4.7748297246272700E-03
              -1.7973963855997524E-04
              -2.6096099783537025E-03
               4.3560507844207204E-03
              -9.0566163855160756E-03
               5.1487068030459863E-04
              -5.7359328969524646E-03
               5.6204306704995431E-03
              -3.2836659436439610E-03
              -4.5258697357611032E-03
               3.6682719560628835E-04
               1.6977344728638571E-02
               4.5843989508602141E-04
              -9.6761547318603269E-03
               1.6619983408834686E-02
              -5.0453453483491444E-03
               2.7707920088612236E-03
               1.3719301209154562E-03
              -8.0716195152392301E-03
               5.3774450250038018E-03
               2.0961940644155876E-02
              -8.7354340105200569E-04
              -3.1896437585848601E-03
              -1.2247182198821883E-02
              -2.1266898638716523E-03
               1.8446925199380659E-03
              -1.7865453711734893E-04
              -1.0285223806940996E-02
               2.4127137782630282E-03
               2.6290908998863613E-03
               7.4318765206181506E-03
              -1.0609017358187499E-02
               2.0676939122311427E-02
              -3.6662773136873052E-03
               2.4583153267839879E-03
               2.2322973865786448E-03
               6.0507885649110503E-04
               9.5253837090217251E-03
               3.9035906921718903E-03
              -8.6859826518913240E-03
               4.0301568356863830E-03
               1.5944728627735995E-03
               2.2574809986504103E-03
              -9.7500641672792713E-03
               2.4375601533246660E-03
              -6.4677686345370050E-03
              -8.1182526673243167E-03
               4.2818338193256200E-03
               8.1904621563305136E-03
               3.4686447337055129E-03
               5.1329739908457109E-03
               4.6872110944960060E-04
              -1.8448330119421345E-03
              -9.7889195395153422E-03
               2.7357012240740771E-03
              -7.7698974937579109E-04
              -2.5778775120443025E-03
               1.5697421082758713E-02
               1.3656437388173972E-03
              -4.7558114018037244E-03
               2.4810318871690065E-03
              -6.2280405147739021E-03
               3.5450646297210775E-03
               5.3249514932274811E-03
              -4.1821627122536715E-03
              -5.2415601695625048E-03
               9.9077336007348075E-03
               4.4844466616371101E-03
              -1.4791204562643765E-02
               2.8385272464817833E-03
               4.8857050033991262E-03
               6.4004874960886500E-03
               8.3809498975109600E-03
              -3.7128280127480145E-03
              -1.9850273743056471E-03
               5.2340864563221491E-03
              -1.0615203781897601E-02
              -2.8503218411077957E-03
               3.4913515850456709E-03
               1.4186487902952028E-03
              -2.5783591252401955E-03
               5.1559152238462311E-03
              -2.1203907335662149E-03
               6.0628066944183583E-03
              -1.1696184947985740E-02
               8.3918947788602146E-03
               2.1676932676246651E-03
              -6.4204763934213292E-04
              -1.8333815052305902E-03
              -6.9926804862222320E-03
               2.2194472294677428E-03
              -3.7848246471085855E-03
               1.7405047891705377E-03
              -1.5806092585734905E-03
               1.8690533522921000E-02
              -3.5934376927403270E-03
              -7.7981692689949736E-03
              -7.9721301331666967E-04
               7.2940077653937665E-03
               1.0492658886516461E-02
               4.1151144548480176E-04
              -6.3151233548546107E-03
              -1.4941481696530996E-02
               7.9585767206806820E-03
              -9.0226225568575970E-04
              -6.6589356554865378E-03
               9.1624904387543251E-03
              -2.5870033072199353E-03
              -4.2439389451335774E-03
               5.8060366300606995E-03
               1.1130824307023651E-03
               6.7700653237531632E-04
              -1.1028713909163098E-02
              -6.1540833185052398E-03
               4.9991780663482155E-04
               3.0749345686335383E-04
               8.9218813694954997E-03
               1.3313030888787243E-02
               9.9359828299821758E-04
              -1.8026918311377229E-02
              -3.7764098482428324E-03
               1.4990711840520631E-02
              -6.4820733755284942E-03
              -3.9681175869824741E-03
               1.6869757502134689E-03
              -6.6363897521647926E-03
              -3.3983375985099378E-03
               3.7673497736900366E-03
              -1.0396135667872182E-02
               1.5675085501098453E-03
               5.4171603351164032E-03
               1.0445406057391355E-02
              -2.9852978928143130E-03
              -5.4038441696025417E-04
               7.0421004248805499E-03
              -1.8134407960173578E-02
               1.3730914844378861E-02
               1.9215316379437052E-03
              -3.6807453692060785E-03
              -4.3120817188689576E-04
               7.7538075828525251E-06
              -2.3989643057397095E-04
               2.9816180778740684E-03
              -6.4301192195720988E-04
              -1.0204298162199952E-02
               8.3042070641910718E-03
               7.3326743619232743E-03
              -1.0411703240654850E-02
              -7.3632390583124804E-03
               4.9791178679081593E-03
              -5.5442594160681063E-03
              -5.0161472718956894E-03
              -2.1456598630485890E-03
              -5.3792027925451881E-04
               1.6761731372214140E-02
              -8.8196650627769650E-03
              -7.2539417116001849E-03
               8.0374702653719903E-05
              -3.8124274300577864E-03
              -1.9067272804965862E-03
              -7.1765264077472055E-04
              -3.1381490755284136E-03
               1.1741549895460541E-02
              -7.6669448137621256E-03
               1.4991757194808648E-02
              -6.2299974094121354E-03
               5.9062093104391925E-03
              -2.6547114705329864E-03
              -1.5280042432534552E-02
               1.1428648526924320E-02
               2.4357390657624828E-03
              -1.6868288778781521E-02
              -5.1100027822392172E-04
              -3.4118250514467163E-04
              -2.0238938342540939E-03
               1.6200826981998297E-02
              -7.8727168152000360E-04
               1.7842755448373594E-03
               1.6048800122858845E-03
               1.8114394708987883E-03
               3.1696417494488068E-03
              -3.6532831159298545E-03
              -1.0910264405672370E-02
              -4.1717666848526926E-04
               1.1830505700201969E-02
              -3.1104480865337758E-03
               3.3166307000998815E-05
               4.0860257558417738E-03
               6.5448522490511082E-04
              -2.8903005141651373E-03
               1.2011475290269124E-02
               6.9760913229717217E-03
              -5.8434178465251070E-03
              -5.9889159509762709E-03
              -6.4832415180426819E-04
              -2.0701899313952895E-03
               2.8271306233056694E-03
               3.0844495749670041E-03
               6.9598620859702828E-03
              -6.5040424992787779E-03
               2.0920168062946499E-03
               2.9828107245341040E-03
               6.1392041112009917E-03
              -9.8296728934623295E-03
              -7.6205455195146087E-03
              -5.8145110442694541E-03
               6.4993173025733979E-03
              -2.7054897897535446E-04
               7.5757143314934081E-03
              -3.3142614188762199E-03
               1.3540850762214160E-02
              -2.0166499395470151E-02
               2.0830386279643107E-02
               3.7803372798183796E-04
               4.1263250710610044E-03
               1.1813653828674146E-03
               5.0895220576847883E-03
              -8.4171168161893701E-03
              -3.7528758709232400E-05
              -5.6278452161613096E-03
               9.3630634221017754E-05
               5.6044824111314900E-03
              -9.3577137838412748E-04
              -5.1246544659298539E-03
              -1.0763780523699996E-03
               9.1365419922206786E-03
               5.9572570348619350E-03
               3.3324330634254577E-03
              -2.9585452341428994E-02
               2.1196276497460441E-02
              -5.1867548763868754E-03
               8.2704024030710935E-03
              -6.8531441918957461E-03
               1.1107603742305668E-03
               8.0800214270278295E-03
              -4.5994526350720223E-03
              -6.7447251107358216E-03
               2.0535782899791044E-03
               3.9121339609230515E-05
              -1.2210765013026727E-02
              -3.1087549512525785E-03
              -2.0839789835066591E-03
              -2.5362079731327349E-03
               1.3459148488025678E-02
              -2.6140963199287677E-03
              -8.8071560830518501E-03
               2.6827261445053771E-03
               1.1617128382321406E-02
              -1.2990917974663169E-02
              -9.2141213971656810E-04
              -3.4608045564378542E-03
               3.8295549104460345E-04
              -1.1241364768703964E-02
               4.7252847449380424E-03
               7.6676760411359454E-03
               8.9637400221697977E-04
               8.4179228983454063E-03
              -1.2551967901434544E-02
              -2.8395068869682769E-03
              -1.1670729206138472E-03
              -7.8584948991897521E-04
               1.5797152686313948E-02
              -7.3173287823707000E-03
              -5.0815276711956847E-03
              -1.2628124256286060E-03
               1.1467803513173344E-02
              -6.4089124338647860E-04
               1.0980940799042761E-02
               2.6745739665416184E-03
               3.2357500874113446E-03
              -9.3021624492895996E-03
               1.4106618329692759E-03
               1.3468824857668288E-02
              -1.3155076602197056E-02
              -1.3993841152705007E-02
               1.5759114860901223E-02
              -6.2396187082396611E-03
               1.0629119749376310E-02
               1.2287599141596619E-03
               3.8083559162637457E-03
              -2.1408841287334757E-03
              -1.8455182268683980E-03
              -1.6814415942705331E-03
              -1.7200563966253857E-02
               9.3357547671593048E-03
              -2.7077932689598097E-03
               5.8000078959883150E-03
               5.9535823621013973E-03
               1.4733515879051546E-02
               3.3186578583269334E-03
              -1.3481821136731312E-02
               1.1288729080201723E-02
               1.5261292822950469E-03
              -7.5603922345431228E-03
               2.1011490510296259E-03
              -5.3823744958485520E-03
              -1.5904415748222496E-03
              -6.5445180068190436E-03
               1.1528154296246715E-03
               7.0431193330209809E-05
               9.1058952423892191E-03
               4.3420029131729125E-03
               6.3870295304949739E-04
               4.9946319934597574E-03
              -7.8395281240865502E-03
              -3.1545495880045990E-03
              -1.5054696915432724E-02
               1.5775689035504081E-02
               3.1264772120583508E-03
              -8.0723956932250915E-03
              -1.1719030914331342E-02
               1.3470342446759837E-02
               9.6606272384521462E-04
              -4.1378666228826634E-03
              -1.1455717115778431E-02
              -8.0195418707098409E-03
              -3.1215403992119728E-03
               1.6950007991194501E-02
               1.0623341466559189E-02
              -5.5075332443917631E-03
              -1.2286840296024604E-02
              -3.4892247666088254E-03
               3.2019789286017661E-03
              -2.9731221142836666E-03
               3.1703165638608142E-03
               9.7100132113805554E-03
              -4.9626761042035556E-03
               3.8850493294001476E-04
               4.5602163613380391E-03
              -8.5603478893958168E-03
              -2.8347484882906898E-03
               5.7610563788448492E-03
               6.4182387528658336E-04
              -5.9854657312932887E-04
               2.0312290964013394E-02
              -6.9207827985934712E-03
              -2.0228240178525623E-02
               8.3624803301404066E-03
               1.8466360983447365E-03
              -5.1827334101878578E-03
              -4.3049777520294645E-03
              -1.7214486757177267E-04
              -9.2959562217411508E-03
               2.0166209891210506E-02
              -3.8359530197022490E-03
              -5.0268892080325310E-03
              -2.9273596771457163E-03
               1.4869741314459245E-04
              -5.9972427422057949E-03
               7.3762409422519926E-03
               3.3881596524429000E-03
              -2.6520344768164818E-02
               1.4527550131384319E-02
               8.1213016804610010E-03
              -8.9518923876821688E-03
               5.9111676841551485E-03
               2.1695836243837446E-02
               5.0756507099527072E-04
               7.3900086755387838E-03
               6.8732249661491900E-03
              -3.0590404519549278E-03
               5.5629215036403761E-03
               2.6088032751265867E-03
               3.2809517537438671E-03
              -1.2708394890565886E-02
               5.7107455811460719E-03
              -4.9959472795612593E-03
              -8.7606344417385802E-04
               3.4363796612078509E-03
              -4.7038603861149645E-03
              -7.0342238928089993E-04
               8.4764771496307536E-03
               1.0421001533564549E-06
              -3.7869118264991864E-03
               3.8533218233270210E-03
              -6.6153604164496157E-04
               1.7990526901422144E-03
               1.0195170784075443E-03
              -9.7615850423910470E-03
               5.6372815190995559E-03
              -7.1626134486106252E-03
               4.2409589719130097E-03
               7.3368318472546660E-03
              -1.0013388573574391E-02
              -3.8774145753068751E-03
              -6.5553056290249441E-03
               6.1308287568491871E-03
              -1.1972771667640035E-02
              -2.4584900204409886E-04
               1.0701679018763796E-02
              -6.3276595281380917E-03
               1.2676430233681119E-02
              -1.0304925048577850E-02
              -1.4481406556253032E-02
              -1.8726743134708436E-03
               4.9650097827340055E-03
              -1.0510747112267458E-02
              -9.1345984805038458E-03
               3.3061461403191151E-03
               6.7291561928817965E-03
               1.6246370667063269E-02
              -8.0022285152849485E-03
              -4.5886350198167825E-03
              -7.5752862649053681E-03
               2.9320875568320890E-03
               5.9314272542965478E-03
              -1.3090144390628220E-02
              -7.3661335074614726E-03
               2.1877503881721990E-02
               4.2958883169724313E-03
              -1.4572153659249505E-02
              -6.0032506539972989E-03
               3.8665698527479845E-03
              -2.0060215281269759E-03
               6.6168654980706199E-03
               4.5371048032302210E-04
              -2.5987142076053894E-04
               8.6761472751978267E-03
              -1.1344619693841602E-02
               8.2649672854865892E-04
              -3.1016771338166983E-03
               1.0735686396161024E-02
               1.7693780386209472E-03
               6.7876433737997467E-03
              -9.1443820506214050E-04
              -1.6141179015656620E-03
              -4.9224026472258851E-03
               8.4366970632823984E-03
               9.0285407451789236E-03
              -8.7404192177085072E-04
              -2.7157283591136444E-03
              -2.9817354824171656E-04
              -7.1810806023107293E-03
               8.0681715475990571E-03
               1.8750877503334801E-03
               9.2367064151048731E-03
              -7.5853877613162018E-03
              -1.5184337310436809E-03
              -3.3991616915605349E-03
              -3.6001644883461555E-03
              -3.8703357828299631E-03
              -9.0988325458125755E-04
              -2.0075832041325779E-03
               2.9323966409407465E-03
               8.0534312155484157E-03
               5.8296682518182135E-03
              -1.3122646449920856E-02
               3.5269973007161148E-03
               9.8740390433396294E-04
               1.0091998892749945E-03
               2.0200961647296872E-03
               6.4261382514085013E-03
               1.9802279204846813E-03
               1.3446416944913654E-03
              -1.1771210053064966E-02
              -8.2644258752594523E-03
               4.6120345820755762E-03
              -9.4582418939468255E-03
               2.1915662495270382E-03
               2.2973533972773133E-03
              -2.0789744400707098E-03
              -2.1656047633822340E-04
              -1.1456692409064970E-03
               8.3507400732303304E-03
              -2.7590466680277015E-03
              -2.4228604015226066E-03
               1.3217039322868844E-03
              -3.0883020794478704E-03
              -7.8298431370786570E-03
              -3.9871823547098688E-03
               6.4353221263102854E-03
               5.6346688418068636E-03
               3.9730966245030207E-04
              -1.0382962421198806E-02
              -1.2801111500515945E-02
               1.5148879651410421E-02
               3.3527305490902394E-03
               6.8865709764511429E-03
              -5.1732839894633609E-03
              -1.0564174625282112E-02
               7.3930471911510653E-03
              -2.1676084179882739E-03
              -1.3138577833262615E-02
              -2.9701819001395628E-03
              -8.5929343872398947E-03
               6.9519485118357859E-04
              -2.9344273375811096E-03
               1.2986123748541979E-02
               5.5811103260244490E-03
               1.3327831651416462E-03
              -6.9965050516795193E-03
              -1.1927625305128796E-04
              -1.6797525575747290E-04
               3.5008160316551645E-03
               4.4239487991830969E-04
               6.0094150981533576E-03
              -4.0599221237055567E-03
               9.6897291289259925E-03
               7.7589578224390495E-03
               1.2854674732544493E-03
              -2.4071722239991031E-03
               3.7842410799173077E-04
               2.2040177714274193E-03
              -5.6480255440647319E-04
               6.0091547375835967E-03
               1.3622461105866075E-02
              -1.1133429960146173E-02
              -1.2237958519406114E-02
              -3.2326542034003094E-03
               1.1178767957231139E-02
              -2.5121995190285950E-03
               2.6265839333398512E-03
              -1.7048239413556491E-04
              -8.7674723327387828E-03
               1.0614001208699658E-02
              -2.5372765711298793E-03
              -3.2885590010933636E-03
               1.0728280497796405E-02
               4.9201726142826781E-03
              -6.5357054703176517E-04
               6.8336342286114873E-03
              -5.0222171370685256E-03
              -1.0144686516406301E-02
               4.1049780764351390E-03
              -8.9566964177843658E-04
               1.3979648397703915E-03
               1.3978911035072061E-04
              -4.2603393462619021E-03
         &END THERMOSTAT_ENERGY
         &RNG_INIT
Wiener process for Thermostat # 1        1 F T T   1.7017201368947403E+00         913774582.0        1324965285.0        1641866245.0        1769261176.0        2432355253.0        1361446764.0             12345.0             12345.0             12345.0             12345.0             12345.0             12345.0             12345.0             12345.0             12345.0             12345.0             12345.0             12345.0
Wiener process for Thermostat # 2        1 F T T  -2.4751592070412292E+00        1047012613.0        2462965090.0        2099435016.0         246300525.0         757191277.0         874918505.0        3692455944.0        1366884236.0        2968912127.0         335948734.0        4161675175.0         475798818.0        3692455944.0        1366884236.0        2968912127.0         335948734.0        4161675175.0         475798818.0
Wiener process for Thermostat # 3        1 F T T  -1.3616927374531100E+00        2992522521.0        2316692606.0         428595948.0          51968340.0        1028808238.0        2648889167.0        1015873554.0        1310354410.0        2249465273.0         994084013.0        2912484720.0        3876682925.0        1015873554.0        1310354410.0        2249465273.0         994084013.0        2912484720.0        3876682925.0
Wiener process for Thermostat # 4        1 F T T   1.7045360768081503E-03        1885157589.0        4187464854.0        1353658819.0        3485816479.0        2038697005.0        2307747358.0        2338701263.0        1119171942.0        2570676563.0         317077452.0        3194180850.0         618832124.0        2338701263.0        1119171942.0        2570676563.0         317077452.0        3194180850.0         618832124.0
Wiener process for Thermostat # 5        1 F T T  -7.7371463212783820E-01        1915528658.0        2924038244.0        2261774389.0        2608495822.0        2477620912.0        2293543555.0        1597262096.0        3906379055.0        3312112953.0        1016013135.0        4099474108.0         275305423.0        1597262096.0        3906379055.0        3312112953.0        1016013135.0        4099474108.0         275305423.0
Wiener process for Thermostat # 6        1 F T T  -3.0581110579050313E-01         247635729.0        1927152730.0        3052617697.0        2475450164.0        1152204142.0        1510351712.0          97147054.0        3131372450.0         829345164.0        3691032523.0        3006063034.0        4259826321.0          97147054.0        3131372450.0         829345164.0        3691032523.0        3006063034.0        4259826321.0
Wiener process for Thermostat # 7        1 F T T  -7.9750651699731656E-01        1261666690.0         175181546.0         710567080.0        3113891484.0        3277928559.0        3219649798.0         796079799.0        2105258207.0         955365076.0        2923159030.0        4116632677.0        3067683584.0         796079799.0        2105258207.0         955365076.0        2923159030.0        4116632677.0        3067683584.0
Wiener process for Thermostat # 8        1 F T T   7.4762934603722320E-01        1197880335.0        1473500441.0        2655593970.0         645293045.0        1816871444.0        3672894243.0        3281794178.0        2616230133.0        1457051261.0        2762791137.0        2480527362.0        2282316169.0        3281794178.0        2616230133.0        1457051261.0        2762791137.0        2480527362.0        2282316169.0
Wiener process for Thermostat # 9        1 F T T  -4.4275763556192732E-01        2340137531.0        3054444332.0        3033867130.0        4080152445.0        1440990785.0        3684025525.0        3777646647.0        1837464056.0        4204654757.0         664239048.0        4190510072.0        2959195122.0        3777646647.0        1837464056.0        4204654757.0         664239048.0        4190510072.0        2959195122.0
Wiener process for Thermostat # 10       1 F T T   2.9650110365051463E-01         833862934.0        3482636038.0        2196432743.0        3939946873.0         762676601.0        1871117344.0        4215590817.0        3862461878.0        1087200967.0        1544910132.0         936383720.0        1611370123.0        4215590817.0        3862461878.0        1087200967.0        1544910132.0         936383720.0        1611370123.0
Wiener process for Thermostat # 11       1 F T T   7.5448901699606163E-01        4144067122.0        1578612062.0         899375902.0        2227658366.0        2808299332.0        2524714748.0        1683636369.0         362165168.0         814316280.0         869382050.0         980203903.0        2062101717.0        1683636369.0         362165168.0         814316280.0         869382050.0         980203903.0        2062101717.0
Wiener process for Thermostat # 12       1 F T T  -1.5526722391876957E-01        1559964255.0        3497592935.0         891360707.0        1425760436.0        2090563477.0        4015978008.0         272317999.0         166758548.0         310112982.0         201045826.0        1680231254.0         118290799.0         272317999.0         166758548.0         310112982.0         201045826.0        1680231254.0         118290799.0
Wiener process for Thermostat # 13       1 F T T   7.1116432133977603E-01         105014853.0        1248642279.0         284459687.0        2637168838.0        2227680771.0        2159403251.0        2245755202.0        1652682525.0        2865544364.0         721509566.0         209733568.0         592362218.0        2245755202.0        1652682525.0        2865544364.0         721509566.0         209733568.0         592362218.0
Wiener process for Thermostat # 14       1 F T T  -6.1383730975148543E-01        1515483133.0        2668738172.0        2244891038.0        3663908300.0        1752487380.0        2627719910.0        3003961408.0        3529909391.0          14538032.0        3603919910.0         566682685.0        1235016484.0        3003961408.0        3529909391.0          14538032.0        3603919910.0         566682685.0        1235016484.0