 # Version information for this restart file 
 # current date 2023-12-18 16:30:17.510
 # current working dir /scratch/mj3313/comp-lab-class-2023/Week12/Runs/Water
 # Program compiled at                              Sat Dec 12 18:27:15 EST 2020
 # Program compiled on                                         cs001.nyu.cluster
 # Program compiled for                                                nyu-intel
 # Source code revision number                                       git:8c64c6e
 &GLOBAL
   PRINT_LEVEL  LOW
   PROJECT_NAME water_aimd_1ns_every0.5fs
   RUN_TYPE  MD
   WALLTIME 21600
 &END GLOBAL
 &MOTION
   &GEO_OPT
     OPTIMIZER  BFGS
     MAX_ITER  100
     MAX_DR     3.0000000000000001E-03
     &BFGS
     &END BFGS
   &END GEO_OPT
   &MD
     ENSEMBLE  NVT
     STEPS  2000
     TIMESTEP     4.9999999999999994E-01
     STEP_START_VAL  1937
     TIME_START_VAL     9.6849999999998647E+02
     ECONS_START_VAL    -1.1023558357480224E+03
     TEMPERATURE     3.0000000000000000E+02
     &THERMOSTAT
       TYPE  GLE
       REGION  MASSIVE
       &GLE
         NDIM  5
         A_SCALE     1.0000000000000000E+00
         A_LIST     1.8595758612559999E+02    2.7263853498399998E-01    1.1526100454610001E+01   -3.6414578262600003E+01 \
             2.3173375816020001E+02
         A_LIST    -2.7809524712060002E-01    8.5951591808710006E-05    7.2189048017650004E-01   -1.9844539343859999E-01 \
             4.2409257583420001E-01
         A_LIST    -1.4825808131210000E+01   -7.2189048017650004E-01    1.3590902121280000E+00    5.1498896280349999E+00 \
            -9.9949268450990001E+00
         A_LIST    -1.0372189126880000E+01    1.9844539343859999E-01   -5.1498896280349999E+00    2.6661910891169999E+01 \
             1.1507715495310000E+01
         A_LIST     2.1801346360420001E+02   -4.2409257583420001E-01    9.9949268450990001E+00   -1.1507715495310000E+01 \
             3.0958394565589998E+02
         &THERMOSTAT_ENERGY
              -2.4483566619381268E-03
              -2.7653327868480747E-03
              -1.3977084888144909E-03
               8.0389576767201758E-03
              -1.1392197882861319E-02
               2.3478935015473113E-03
              -4.6803775553996667E-04
              -6.3602004555790596E-03
               1.7042410300411769E-02
               2.1977663893905709E-03
               1.1516909427248359E-02
              -1.8051861782936171E-04
              -2.7760917714140798E-03
              -8.9959916689855944E-03
               1.5127627076381594E-03
              -1.1004488382704221E-02
               1.5895617777896186E-02
               5.0135103209780285E-04
               9.4313071395094525E-03
              -6.5891720119474343E-03
              -2.5852404808279971E-03
               1.3671973064510838E-03
              -7.2894870887858102E-03
              -4.9924391155913746E-03
               2.3898601878869995E-03
               3.5894068070324333E-03
               1.4803116387517561E-03
               1.2290024720554259E-03
               1.1890433680130694E-02
               1.7948982451018911E-03
               7.5272825810280652E-04
              -3.9654561445763362E-03
               3.7742573726714020E-03
               5.6637008110532574E-03
              -1.7345211786124696E-02
               1.4878956669830433E-02
               1.6683917160163794E-03
              -3.2470851009095791E-03
               6.8008924187418186E-04
               7.9218242648147561E-03
              -7.4318907007331339E-03
              -8.5812193189136968E-03
               9.2713232629117702E-03
               2.9562852806687828E-03
              -4.3603847846500300E-03
               3.8133986712741417E-03
              -1.6996750688793674E-03
               7.4349974007796209E-03
               4.2803634845161326E-03
               4.9701079957137286E-04
              -2.5954941673885798E-03
               4.2708287669088957E-03
              -9.3357477082545298E-03
               5.3779829023706228E-04
              -5.8411338602465676E-03
               6.0151929268112414E-03
              -3.6017158648805375E-03
              -4.8925276664935190E-03
               3.2372008554514291E-04
               1.6775127697514578E-02
               2.3707321808429246E-04
              -9.0518704060497425E-03
               1.6699884652545006E-02
              -5.0520494147118797E-03
               3.8996415615475408E-03
               1.3303294988838274E-03
              -8.0593097910690702E-03
               5.2813164403453109E-03
               2.0305809539127646E-02
              -6.2750238255534759E-04
              -3.2497181570742750E-03
              -1.2592052018941122E-02
              -1.8595120358510734E-03
               2.2040453504367581E-03
              -2.0068511267937059E-04
              -9.8802079762083696E-03
               2.6011136535121580E-03
               2.6191239031133312E-03
               7.5112134168725921E-03
              -1.0992767684383557E-02
               2.1500896182062537E-02
              -4.0129776299544081E-03
               2.3430659981933978E-03
               2.2609937136936326E-03
               4.5689036600942367E-04
               9.0100022680730633E-03
               3.7683821077009526E-03
              -8.7885804731482661E-03
               4.0133736054453212E-03
               2.0265004753560554E-03
               2.1679966150926380E-03
              -9.6541314776458463E-03
               2.5194799112164988E-03
              -6.2140858475160602E-03
              -7.8074118426656900E-03
               4.2352757282099075E-03
               8.5380880981870619E-03
               3.4245879535766766E-03
               5.2670001516118602E-03
               1.0156122835690425E-04
              -1.8316047912267706E-03
              -9.5596809073597994E-03
               2.6385854155830169E-03
              -1.8144214542479722E-03
              -2.5450025167107907E-03
               1.5596855072596363E-02
              -4.4771171508364675E-06
              -4.7735878388931088E-03
               2.3762649309613327E-03
              -5.7859858016075351E-03
               3.6147031862690708E-03
               5.1225133842227218E-03
              -4.1401834209978212E-03
              -4.9671615423754097E-03
               9.8430195268412821E-03
               4.0826338522825436E-03
              -1.4743092348365180E-02
               2.6685207518016628E-03
               4.9267944670829782E-03
               7.0658144582935005E-03
               8.5749461315744006E-03
              -3.9562163670907183E-03
              -1.5650633194476101E-03
               5.6348569518454286E-03
              -9.6724760097906103E-03
              -2.8096701788391104E-03
               3.5271514929300159E-03
               1.3964643934297823E-03
              -2.5547676257643144E-03
               5.1095304775995547E-03
              -2.3456811769283960E-03
               6.0833699204058348E-03
              -1.1633299306600536E-02
               8.3056228045648647E-03
               2.4541952186458941E-03
              -1.4880770903630313E-04
              -1.7824690777425158E-03
              -5.8453632403512000E-03
               2.1971506624616712E-03
              -3.5116383401897957E-03
               1.6793372414207286E-03
              -1.8584187296858388E-03
               1.9244673788820232E-02
              -3.4006844087584201E-03
              -7.7392119305135544E-03
              -7.8815289764806783E-04
               7.3012932031242530E-03
               1.0621653110708834E-02
               7.5903728334118510E-04
              -6.4092144269251002E-03
              -1.5165329306539238E-02
               7.4465243135836429E-03
              -2.5475270120251317E-04
              -6.9944416446205866E-03
               9.2038041929138805E-03
              -2.5855071863362744E-03
              -3.9854774227129847E-03
               5.7733582224354140E-03
               1.1927503957992959E-03
               6.2783836104155150E-04
              -1.1137097723043049E-02
              -6.0851074016745306E-03
               7.4617284803082853E-04
               9.7941225006223072E-04
               9.1113107568544360E-03
               1.3242893459359712E-02
               5.1888080713509302E-04
              -1.8051872846674130E-02
              -3.6379024115240333E-03
               1.5018430517566605E-02
              -6.4911190576081882E-03
              -3.0727370754763976E-03
               1.8139897516451194E-03
              -6.7463563597650617E-03
              -3.3353478146385608E-03
               3.3087063041938283E-03
              -1.0361609525281449E-02
               1.8043387109042347E-03
               5.8698111662785516E-03
               1.0444711585243795E-02
              -2.9775295355672837E-03
              -1.4442234024441246E-03
               6.9874668547920821E-03
              -1.8143132678331623E-02
               1.3517062298071345E-02
               2.4179344776394810E-03
              -3.5776928429826480E-03
              -5.2556725889863149E-04
              -1.7989788658662599E-04
              -2.1295814842982742E-04
               3.4852778636323498E-03
              -7.9215711603179153E-05
              -1.0186826651476156E-02
               8.3495000006890002E-03
               8.3867359582486482E-03
              -9.9235178319863407E-03
              -7.2255188649333326E-03
               4.6360267702122400E-03
              -4.3539151234000505E-03
              -4.9025071100954878E-03
              -2.1203303865033100E-03
              -4.3125692872397287E-04
               1.6843939762639436E-02
              -9.1968737702795983E-03
              -7.0051742989132131E-03
               2.2398087857023594E-04
              -3.7696189436790552E-03
              -1.8830401027894240E-03
              -8.5260163591929956E-04
              -3.3041470215288138E-03
               1.2069622942316869E-02
              -6.7132392361909481E-03
               1.4847889698750122E-02
              -6.1375638688450111E-03
               5.9639572375406310E-03
              -2.6163290603428077E-03
              -1.5196105118250945E-02
               1.1797499279067392E-02
               2.9144601872883665E-03
              -1.7189903404189875E-02
              -5.0111349467130552E-04
              -1.3518172206385481E-04
              -2.3818202395323096E-03
               1.6264317490848092E-02
              -1.3107718458054902E-03
               1.5875349975856008E-03
               1.6392163428352417E-03
               1.5317026560694265E-03
               3.5180983056853636E-03
              -3.7552889339766689E-03
              -1.1105036644381505E-02
              -5.3947774298045311E-04
               1.1881839990173995E-02
              -2.6511193573360999E-03
               2.6999391620465083E-04
               3.9934851088082469E-03
              -6.5172129695581808E-05
              -2.9665984170132967E-03
               1.2126940449639075E-02
               6.9503362515886315E-03
              -6.4668463476713518E-03
              -5.9855308808479373E-03
              -6.6413992519847621E-04
              -1.6628512961767874E-03
               2.8372953827587289E-03
               3.1687860833727729E-03
               6.9222854856270484E-03
              -5.4124473778797474E-03
               2.2967658646619736E-03
               3.0602830898423007E-03
               6.6517256884325920E-03
              -9.6578085298794809E-03
              -7.9787108653913644E-03
              -5.7650657055756472E-03
               6.4693581202536635E-03
              -2.1605742955793124E-04
               6.8013063599404915E-03
              -3.0870072296617606E-03
               1.3082094041708740E-02
              -2.0175888096858212E-02
               2.1384783735690652E-02
               1.5029469572758246E-04
               3.9451218876580124E-03
               1.9026285581067661E-03
               5.1067100223294694E-03
              -8.0892740607258918E-03
               4.5346575702206131E-05
              -5.6448683617604965E-03
               1.9343818408540191E-04
               5.5273292784764694E-03
              -9.3099573549725782E-04
              -4.8375568810144999E-03
              -2.3084531146480153E-03
               8.6792320798479428E-03
               6.0417781619049038E-03
               3.3301075812348134E-03
              -2.9521545859380164E-02
               2.1392259427564567E-02
              -5.1721383944744832E-03
               7.7161676408874016E-03
              -6.9064754625783658E-03
               1.0368271526218888E-03
               8.1862784392435755E-03
              -4.8897758422870013E-03
              -6.8335882341898583E-03
               1.9186470182205979E-03
              -1.9854768587585953E-05
              -1.2481892974284118E-02
              -3.0818680571860812E-03
              -3.3145729553455457E-03
              -2.6157903241739943E-03
               1.3211790400158149E-02
              -1.7237303027514146E-03
              -8.7127995937290627E-03
               2.2433630460291132E-03
               1.1400828265779931E-02
              -1.2993705367989616E-02
              -1.4060782365406853E-03
              -3.7095114493752171E-03
               4.1246081674901187E-04
              -1.1531493859883071E-02
               4.9589103152641555E-03
               6.8885791169493006E-03
               1.3723224168362838E-03
               8.4107854621122222E-03
              -1.2938242386213059E-02
              -2.9476597448078617E-03
              -1.0718245575988203E-03
              -6.7401109286124319E-04
               1.6015018127057665E-02
              -7.2917535235941669E-03
              -6.1045453327940417E-03
              -1.2539457113727463E-03
               1.1235150655555262E-02
              -1.0290392483532432E-03
               1.0977263729058934E-02
               2.4906636295778752E-03
               3.5217208317438213E-03
              -9.2121814186097353E-03
               1.3744523227674102E-03
               1.3112322748384342E-02
              -1.4348675088977834E-02
              -1.4006418483060019E-02
               1.6074983192412455E-02
              -6.2264737206400109E-03
               1.0793736195692020E-02
               1.7535861077604075E-03
               4.3722432086194165E-03
              -1.9346375432775728E-03
              -1.7928718194607615E-03
              -1.9560576673993122E-03
              -1.7403466488416033E-02
               9.3669856452621818E-03
              -2.8672754275884489E-03
               5.7988221127318528E-03
               6.1203765229240438E-03
               1.4165532770031729E-02
               3.2309084459984229E-03
              -1.3224040995200905E-02
               1.1668704239277169E-02
               3.0158985145224302E-04
              -7.6258758661897829E-03
               2.1117757167104186E-03
              -6.2898440989225153E-03
              -1.3625846995488642E-03
              -5.9233937288654323E-03
               1.2512395799360824E-03
               4.7567723509414801E-05
               8.8421189228794911E-03
               4.4431519254181217E-03
               6.9611657970121985E-05
               5.0163246292038123E-03
              -7.8433007416200129E-03
              -2.9637456574299419E-03
              -1.4880912099295505E-02
               1.4870302496141878E-02
               3.1934127270466656E-03
              -8.8207960082512648E-03
              -1.1857380432073001E-02
               1.3392606081801317E-02
               1.0232993744461831E-03
              -4.2398091470409200E-03
              -1.1452762522712760E-02
              -6.1163572492174420E-03
              -3.1015301163822354E-03
               1.6656260763193730E-02
               1.0458044400036405E-02
              -5.4182559357861294E-03
              -1.2417517989820357E-02
              -3.5161560325997097E-03
               3.2825826243050096E-03
              -2.5401191586343673E-03
               3.1790726510776343E-03
               9.6259631600001914E-03
              -4.7183008409444433E-03
               7.6222532624816786E-04
               4.9655392181041317E-03
              -8.5373985427329990E-03
              -2.1422818264124868E-03
               5.5892503688392305E-03
               8.0797444327926305E-04
               3.4929243602770273E-04
               2.0654900230824755E-02
              -6.0812461358870336E-03
              -2.0186192982060917E-02
               8.2223092970940131E-03
               2.1260496819119185E-03
              -5.7845692511105384E-03
              -4.2484088954731864E-03
              -1.0950151428240263E-04
              -8.6652183123406210E-03
               2.0294366521217268E-02
              -3.5650396132690188E-03
              -5.3859901598045275E-03
              -2.3222762379901032E-03
               3.7971109060104443E-04
              -5.9116057841998347E-03
               7.5098603816586501E-03
               4.0477020687343553E-03
              -2.6403355746273050E-02
               1.4459049644821975E-02
               7.2672301351684905E-03
              -8.7281651925442197E-03
               5.5788691074622398E-03
               2.1400053986259448E-02
               4.8061742061821129E-04
               7.1488615148806558E-03
               6.8472587895796327E-03
              -3.0053318442657398E-03
               4.9935920960534090E-03
               2.5024502286609520E-03
               3.3413229793103146E-03
              -1.2766967662136652E-02
               5.1726212363815242E-03
              -5.0375215974048397E-03
              -1.2249398208384358E-03
               3.3539995070329901E-03
              -4.6897990436604040E-03
              -8.1854469309317176E-04
               8.4704133228012991E-03
              -1.4392926877993098E-04
              -3.7249546700800790E-03
               3.8605800711405411E-03
              -4.2192601515822519E-04
               1.2179895818099885E-03
               9.0929285381517256E-04
              -9.5630402961633700E-03
               5.4262090621998811E-03
              -7.2783245812627507E-03
               4.6206271637790662E-03
               7.8698200039707764E-03
              -9.9753718998239066E-03
              -3.9394770460823084E-03
              -6.7214132217603799E-03
               6.3148775416906272E-03
              -1.1793723243776514E-02
              -2.7277092498213861E-04
               1.1169334005509016E-02
              -6.6010029076261200E-03
               1.2069164620006723E-02
              -1.0076227942636512E-02
              -1.4413610098703719E-02
              -1.8548590976764201E-03
               4.9600412275249842E-03
              -1.0997723052108216E-02
              -8.0741481703139901E-03
               2.2487752704084974E-03
               6.7382010249249641E-03
               1.5999370477716345E-02
              -8.6078302224483014E-03
              -4.5523125981859420E-03
              -7.2187840751981036E-03
               2.8515605905834293E-03
               5.8735280938919986E-03
              -1.3147286122047646E-02
              -7.3536574543832233E-03
               2.2174584295028076E-02
               4.3119656305024472E-03
              -1.4414684097016177E-02
              -6.2390342761422784E-03
               3.2066886439191863E-03
              -2.2617800559605076E-03
               7.0609256604329020E-03
               3.8093417453118929E-04
              -3.8369775830768152E-04
               8.6857375212149035E-03
              -1.1259030271355348E-02
               1.0547097193655387E-03
              -3.0638248187206635E-03
               1.0608424225302632E-02
               1.8169059120650148E-03
               6.7137121810478878E-03
              -1.2012711879035218E-03
              -1.6293620221352939E-03
              -4.8914922342084208E-03
               8.4091591626952664E-03
               9.1168764356990995E-03
              -5.4671475269553091E-04
              -2.7201625968986637E-03
              -1.6151074758974441E-04
              -7.2047424385344103E-03
               8.0989591974842210E-03
               2.2535620729598445E-03
               8.8780850182054328E-03
              -7.4258080943768612E-03
              -1.4208356186018671E-03
              -3.6809604933164463E-03
              -3.3766658099468006E-03
              -4.8652303382067108E-03
              -8.3132455698418765E-04
              -2.1722189367513233E-03
               2.8362167976561672E-03
               8.2402181287231663E-03
               6.0858665768576846E-03
              -1.3174119691690255E-02
               3.5018123252795567E-03
               6.0476299870267244E-04
               1.2210808640697552E-03
               1.7956397624610814E-03
               6.6651363511866764E-03
               1.8916145182676044E-03
               1.5077026520261313E-03
              -1.1805894030350688E-02
              -8.3870440784964521E-03
               4.7937256624021405E-03
              -9.9778825097278385E-03
               2.1435609300091722E-03
               1.8720962244770279E-03
              -2.1931951014214704E-03
              -6.6274884064983133E-04
              -1.2024349373097694E-03
               8.8099683185146743E-03
              -2.8474184092498896E-03
              -2.4312870048989708E-03
               1.4680509272505169E-03
              -3.2199501021318946E-03
              -8.0185453006600890E-03
              -4.0601484107743325E-03
               6.3975084016790933E-03
               5.6983256139686318E-03
               3.6960158061051122E-04
              -9.6646262517389760E-03
              -1.2841273542933457E-02
               1.5254129182466618E-02
               3.4451639472096616E-03
               6.1993546571037558E-03
              -5.7902525466725398E-03
              -1.0298757345988285E-02
               7.3935252649794695E-03
              -2.1845630748738051E-03
              -1.3213859756815209E-02
              -3.0250777110306408E-03
              -8.3737863022652174E-03
               1.8177592664200357E-03
              -2.8971413050930166E-03
               1.2857994289350970E-02
               5.5016252526700364E-03
               1.3336733706231338E-03
              -7.0274865451260705E-03
              -1.7411242358841226E-04
               6.3774361126716655E-05
               3.6171528705801152E-03
               4.6836927726779851E-04
               6.0546855649371775E-03
              -4.1799972905079679E-03
               9.6419005434744774E-03
               7.4615948608474118E-03
               1.3235880167918076E-03
              -2.3390991302177375E-03
               3.4686255542050389E-04
               2.6619229206981425E-03
              -7.4563201213115468E-04
               5.6406546984533040E-03
               1.3626601499720234E-02
              -1.1148624188346992E-02
              -1.2306357957051026E-02
              -3.2176538713055338E-03
               1.1235755863392750E-02
              -2.7019430137325429E-03
               2.5531452451798319E-03
              -3.3795647906286440E-04
              -8.0903529010511264E-03
               1.0940581242393293E-02
              -2.5295911772579734E-03
              -3.0815326047058914E-03
               1.0532449796772324E-02
               5.1485427229653854E-03
              -3.7308148249306166E-04
               7.8087645441901263E-03
              -5.2839735014323453E-03
              -1.0124198892996445E-02
               3.6247365523823668E-03
              -8.2868995663135559E-04
               1.6008965576292892E-03
               8.8970970732066799E-04
              -4.3859049101508405E-03
         &END THERMOSTAT_ENERGY
         &RNG_INIT
Wiener process for Thermostat # 1        1 F T T  -8.0574509596145177E-02         820818932.0        4201285822.0        4198069083.0        1544797546.0        2428036890.0        3254807620.0             12345.0             12345.0             12345.0             12345.0             12345.0             12345.0             12345.0             12345.0             12345.0             12345.0             12345.0             12345.0
Wiener process for Thermostat # 2        1 F T T   2.5069915859170561E-01         967761208.0        3561775935.0        1837506959.0        3235165023.0         385792695.0        1958700757.0        3692455944.0        1366884236.0        2968912127.0         335948734.0        4161675175.0         475798818.0        3692455944.0        1366884236.0        2968912127.0         335948734.0        4161675175.0         475798818.0
Wiener process for Thermostat # 3        1 F T T   3.4374734169462684E-01        1725689995.0        3729764478.0        3467210988.0          83836123.0         943995859.0        2336040023.0        1015873554.0        1310354410.0        2249465273.0         994084013.0        2912484720.0        3876682925.0        1015873554.0        1310354410.0        2249465273.0         994084013.0        2912484720.0        3876682925.0
Wiener process for Thermostat # 4        1 F T T   3.0453679883556822E-01        3369508448.0        4170291678.0        1155850114.0        1855126307.0         757011683.0        3854836110.0        2338701263.0        1119171942.0        2570676563.0         317077452.0        3194180850.0         618832124.0        2338701263.0        1119171942.0        2570676563.0         317077452.0        3194180850.0         618832124.0
Wiener process for Thermostat # 5        1 F T T   4.7194014815640167E-01        1883476808.0        1457936079.0        3834093741.0        3463905817.0        3100925807.0        2935329097.0        1597262096.0        3906379055.0        3312112953.0        1016013135.0        4099474108.0         275305423.0        1597262096.0        3906379055.0        3312112953.0        1016013135.0        4099474108.0         275305423.0
Wiener process for Thermostat # 6        1 F T T   8.4590014785624068E-01         383938314.0        3584921457.0        3494880880.0         405095484.0         234547531.0         770810986.0          97147054.0        3131372450.0         829345164.0        3691032523.0        3006063034.0        4259826321.0          97147054.0        3131372450.0         829345164.0        3691032523.0        3006063034.0        4259826321.0
Wiener process for Thermostat # 7        1 F T T  -5.7056658728378784E-01        2514832235.0         268722878.0        2164310913.0         801222244.0        3297283411.0        1393959384.0         796079799.0        2105258207.0         955365076.0        2923159030.0        4116632677.0        3067683584.0         796079799.0        2105258207.0         955365076.0        2923159030.0        4116632677.0        3067683584.0
Wiener process for Thermostat # 8        1 F T T   1.3936621713883413E+00        1699497581.0        2892378068.0        3404001188.0        2548453553.0        3911673271.0        3397044869.0        3281794178.0        2616230133.0        1457051261.0        2762791137.0        2480527362.0        2282316169.0        3281794178.0        2616230133.0        1457051261.0        2762791137.0        2480527362.0        2282316169.0
Wiener process for Thermostat # 9        1 F T T   2.5011824440883013E-01        4169327315.0        3680758343.0         662629842.0        2087055095.0        1216320054.0        1508512189.0        3777646647.0        1837464056.0        4204654757.0         664239048.0        4190510072.0        2959195122.0        3777646647.0        1837464056.0        4204654757.0         664239048.0        4190510072.0        2959195122.0
Wiener process for Thermostat # 10       1 F T T   2.1580861760811451E-01         932554882.0        1373325972.0        1683717934.0        2910463492.0        2805972889.0          88231401.0        4215590817.0        3862461878.0        1087200967.0        1544910132.0         936383720.0        1611370123.0        4215590817.0        3862461878.0        1087200967.0        1544910132.0         936383720.0        1611370123.0
Wiener process for Thermostat # 11       1 F T T  -2.6653895507544428E-01        2023123915.0        1156464662.0        1764717158.0        3193119806.0        3672827077.0        2860598387.0        1683636369.0         362165168.0         814316280.0         869382050.0         980203903.0        2062101717.0        1683636369.0         362165168.0         814316280.0         869382050.0         980203903.0        2062101717.0
Wiener process for Thermostat # 12       1 F T T   1.9409390697781108E+00        2282759153.0        2916001542.0        4242185106.0        2284321770.0         453518326.0         448340267.0         272317999.0         166758548.0         310112982.0         201045826.0        1680231254.0         118290799.0         272317999.0         166758548.0         310112982.0         201045826.0        1680231254.0         118290799.0
Wiener process for Thermostat # 13       1 F T T   6.9170230436196134E-01        1747454826.0         596530662.0        3219233751.0        1357492550.0        1277547133.0         255317191.0        2245755202.0        1652682525.0        2865544364.0         721509566.0         209733568.0         592362218.0        2245755202.0        1652682525.0        2865544364.0         721509566.0         209733568.0         592362218.0
Wiener process for Thermostat # 14       1 F T T  -6.1527347285359213E-01        2593595414.0         185159886.0        1597113511.0        1536999223.0        4257177296.0        1585043022.0        3003961408.0        3529909391.0          14538032.0        3603919910.0         566682685.0        1235016484.0        3003961408.0        3529909391.0          14538032.0        3603919910.0         566682685.0        1235016484.0