 # Version information for this restart file 
 # current date 2023-12-18 15:12:07.262
 # current working dir /scratch/mj3313/comp-lab-class-2023/Week12/Runs/Water
 # Program compiled at                              Sat Dec 12 18:27:15 EST 2020
 # Program compiled on                                         cs001.nyu.cluster
 # Program compiled for                                                nyu-intel
 # Source code revision number                                       git:8c64c6e
 &GLOBAL
   PRINT_LEVEL  LOW
   PROJECT_NAME water_aimd_1ns_every0.5fs
   RUN_TYPE  MD
   WALLTIME 21600
 &END GLOBAL
 &MOTION
   &GEO_OPT
     OPTIMIZER  BFGS
     MAX_ITER  100
     MAX_DR     3.0000000000000001E-03
     &BFGS
     &END BFGS
   &END GEO_OPT
   &MD
     ENSEMBLE  NVT
     STEPS  2000
     TIMESTEP     4.9999999999999994E-01
     STEP_START_VAL  1500
     TIME_START_VAL     7.5000000000000762E+02
     ECONS_START_VAL    -1.1023558357480224E+03
     TEMPERATURE     3.0000000000000000E+02
     &THERMOSTAT
       TYPE  GLE
       REGION  MASSIVE
       &GLE
         NDIM  5
         A_SCALE     1.0000000000000000E+00
         A_LIST     1.8595758612559999E+02    2.7263853498399998E-01    1.1526100454610001E+01   -3.6414578262600003E+01 \
             2.3173375816020001E+02
         A_LIST    -2.7809524712060002E-01    8.5951591808710006E-05    7.2189048017650004E-01   -1.9844539343859999E-01 \
             4.2409257583420001E-01
         A_LIST    -1.4825808131210000E+01   -7.2189048017650004E-01    1.3590902121280000E+00    5.1498896280349999E+00 \
            -9.9949268450990001E+00
         A_LIST    -1.0372189126880000E+01    1.9844539343859999E-01   -5.1498896280349999E+00    2.6661910891169999E+01 \
             1.1507715495310000E+01
         A_LIST     2.1801346360420001E+02   -4.2409257583420001E-01    9.9949268450990001E+00   -1.1507715495310000E+01 \
             3.0958394565589998E+02
         &THERMOSTAT_ENERGY
              -4.0924490199485998E-03
              -1.3172969916057239E-03
              -1.5138453868137895E-03
               6.9077677310162618E-03
              -1.2693031433674014E-02
               5.7230695793344250E-03
               2.6330277743578105E-03
              -9.2023219915278974E-03
               1.4071245635343786E-02
               4.2195347064440617E-03
               9.5056458518086480E-03
              -4.4386861190621940E-03
               8.4652796224548416E-04
              -1.0213934273023653E-02
              -6.5335356680395963E-04
              -4.0464716043576232E-03
               1.4775502155766595E-02
               1.0925113872925015E-03
               7.6109419339446902E-03
              -5.8129338216149455E-03
               1.7864120675989427E-03
               1.6960703962554616E-03
              -1.0249254699105470E-03
              -3.3811454145623172E-04
               8.0561774873296024E-05
               1.2576773262599206E-03
               1.1363363283639657E-03
               2.0071040549045474E-04
               1.3254615771899979E-02
               2.3406115747116336E-03
               2.6255366821760682E-03
              -2.5318254355053259E-03
              -3.0771419362079482E-03
               3.1315464429851102E-03
              -1.6824268093220542E-02
               1.8101738432207956E-02
              -4.3826648215222183E-04
              -2.0386384580779824E-03
               1.3124245319347495E-03
               6.2065367129710784E-03
              -8.1316880977218634E-03
              -2.8295736535132216E-03
               7.7896469905268505E-03
               2.7891768291663155E-03
              -3.3040868114120161E-03
              -9.6739468718165921E-05
              -6.1648430550868480E-04
               4.1212468353672297E-03
              -8.3019729272060022E-04
               2.8196177077023394E-03
              -5.8987795586005684E-04
              -2.0821164955796435E-03
              -3.6882896369025667E-03
               2.8981698989658791E-03
              -6.3373674353395066E-03
               4.5114468890537314E-03
              -2.7358058430457027E-03
              -1.1708135103821469E-03
               8.2564513749784998E-04
               1.0790328505522365E-02
               1.9857747997583529E-03
              -1.3271864403118335E-02
               1.7222479168571201E-02
              -3.0024743678176914E-03
               4.1890927807814188E-03
               2.7681779476801442E-04
              -1.0023418680932846E-02
               3.7419142864739234E-03
               2.1181827097724180E-02
               3.1211654587473734E-03
              -1.7938359108916071E-03
              -1.2374668822689807E-02
              -1.3598285220772499E-03
               2.8914147177025890E-04
              -5.2800121446786095E-04
              -9.7678895342730616E-03
               4.3864231740304988E-03
              -1.6152894421268605E-03
               8.1692439902101999E-03
              -1.2914347161872923E-02
               1.9854494258005829E-02
              -3.5708819721775161E-03
               7.5352009368426774E-04
              -1.5302745984360035E-03
               5.2774196596864255E-03
               5.0466536966615148E-03
              -2.1897987447339344E-03
              -4.0065994134263977E-03
               4.4503885923433094E-03
               2.2997176971440805E-03
               1.0606335523107760E-03
              -8.5201983714709231E-03
               3.7172320737839308E-03
              -7.2830162792221331E-03
              -9.6269465651598260E-03
               8.5621417912367034E-03
               1.0580537896684054E-02
              -4.3776761865867353E-03
               4.9863961186429875E-03
               2.3332163161880206E-03
              -3.4575133319880965E-03
              -6.1253000310538454E-03
               9.1655210346356926E-04
              -1.8285988865858742E-03
              -3.6388952302943015E-03
               1.2129784115808975E-02
               2.8582006132036350E-04
              -2.4378532246043839E-03
               2.6820705551141959E-03
              -5.3165969909531640E-03
               3.4093292544432282E-03
               4.3249259452057291E-03
               1.3558295527322944E-03
               1.5250290354563273E-03
               6.3139322194966417E-03
               4.9087062430045701E-03
              -1.4765799405545878E-02
               3.1468498264353153E-03
               6.8069861929121829E-03
               3.3365524974931955E-03
               1.0891587648109815E-02
              -4.7051947711682311E-03
              -3.0854508952540449E-03
               4.3312927089386808E-03
              -7.3726028241127058E-03
              -1.6498689265583768E-03
               6.4721847665880159E-03
               2.3249054226862767E-04
              -2.1024595049734976E-03
               5.7220893210581185E-04
              -2.1315388388025887E-03
               4.9610883028549978E-03
              -9.1230016968210492E-03
               6.1825499766730496E-03
               3.6402552515000276E-03
              -3.6331643942494557E-04
              -2.8390700224825015E-03
              -4.3582248335606675E-03
               5.2841574659777098E-03
              -2.3639735166724944E-03
               6.1959057105135306E-03
              -8.4517997565363394E-05
               1.6030343929678750E-02
              -5.6966690087316965E-03
              -4.9980537084549480E-03
              -2.4159841870662704E-03
               8.4702634472086022E-03
               3.9803554738133181E-03
               6.3583999368542119E-04
              -5.0722746649918870E-03
              -1.2796089288269179E-02
               3.1398079310447644E-03
               4.6500277176908834E-03
              -8.1157348906488683E-03
               9.2148061425696287E-03
              -1.3854385129846542E-03
               4.3901349769707369E-04
               6.9583950742503186E-04
               2.5460922319818784E-04
              -2.2318337788262603E-03
              -1.6017734107145157E-03
              -5.2052216174684092E-03
              -5.2463750930182890E-04
               1.1508774660769141E-03
               3.4402796004113119E-03
               1.0725730009654480E-02
              -3.4331733226121604E-03
              -6.2934117645437734E-03
              -6.7705773837694874E-03
               1.0348934997376831E-02
              -1.8593162342105320E-03
              -2.7634177253447042E-03
              -7.3733981797204974E-04
              -3.9880279913360912E-03
              -2.4513521532211913E-03
               5.4812528724276300E-03
              -9.1435263046744601E-03
              -4.6585041782644257E-04
               8.9116346380336349E-04
               5.8460928748684231E-03
              -3.8572453483458869E-03
               1.1219574274819042E-04
               5.9886816585366098E-03
              -1.7845447785583540E-02
               1.2061173123050049E-02
              -9.2103141793787644E-05
              -2.4867387618091501E-03
              -1.5843651892751115E-03
              -2.0025905268204721E-03
              -7.0348206718802908E-05
               1.2112308452574341E-03
              -4.1372214444254762E-05
              -8.4161483900387392E-03
               9.4031238074918071E-03
               6.1606421341499178E-03
              -7.2847919023162717E-03
              -4.8510164040080975E-03
               3.3260852671093623E-03
              -2.2569917082144934E-03
              -1.5413945234177009E-03
               4.2604049767415518E-05
              -2.7371081478016275E-03
               1.1583327942426107E-02
              -2.2491755858974883E-04
              -4.5021383439140068E-03
               1.4257874309327883E-04
              -5.2050862364728485E-03
              -1.0504802227083535E-04
               1.0013979145715539E-03
              -1.2709147854045194E-03
               9.4451610041045159E-03
              -8.5834510521798617E-03
               1.4264751291191880E-02
              -8.5077419133041052E-03
               3.7524066210398240E-03
               4.3124167996333772E-03
              -9.3402932286368399E-03
               7.1034214388278607E-03
              -1.5409264459400342E-03
              -1.3388909929763717E-02
               2.5812147341831189E-03
              -1.6061462751918619E-04
              -4.9564543729998373E-04
               7.4832175414891256E-03
               4.4461367269325029E-04
               6.1975813246872835E-04
               6.5381729674672821E-04
               3.4109384783351704E-04
              -4.2731801870071638E-03
               6.3640270687521762E-03
              -1.0534109772417902E-02
               2.7859093290654316E-03
               8.9846909821053728E-03
              -8.2549443600080947E-03
               4.0705121399948439E-03
              -2.3791375444139739E-03
              -2.5300692339820163E-03
              -4.7123651698507198E-04
               8.9064596554490581E-03
               5.5690375122053968E-03
              -3.1098723863312876E-04
              -4.3716180499287017E-03
              -1.6449349954275850E-03
              -2.0380098128638066E-03
              -1.3977265194380806E-03
               3.2352663716844044E-04
               7.8933963111253169E-03
              -4.2670846855644325E-03
              -1.1973402952789396E-03
               3.1825487555822052E-03
               3.2545211711041732E-03
              -4.4258169956186586E-03
              -7.1363159952050935E-03
              -7.8072365994835326E-03
               3.7638122643071938E-03
              -3.1073981525663293E-03
               7.0994257198036060E-03
              -5.0472435067781636E-03
               9.4059936257330518E-03
              -1.2333903382781945E-02
               1.8256252886716687E-02
               1.0188969268171124E-04
               6.3180651429593287E-03
               1.4520182351888042E-03
               2.6453536317799899E-03
              -1.0227592272064909E-02
               4.5730609446191792E-03
              -3.1530099146779458E-03
              -3.6187150303835115E-03
               8.1727059261177369E-03
              -5.1143071418025534E-03
              -3.8960141860963273E-03
               4.5170887156429996E-03
               1.4209657273874294E-02
              -2.9838895876448507E-03
               2.3137059079754423E-03
              -2.9667069466821325E-02
               1.7028740740618165E-02
              -4.3527874079451768E-04
               9.0867878623651782E-03
              -7.7658822534849544E-03
               2.8141819647817968E-03
               1.5083310651763925E-02
              -3.6313764489803993E-03
              -9.6930335923101664E-03
              -7.0591595274558669E-03
               9.7329008340910983E-04
              -4.6652532807609825E-03
              -3.0331481314583440E-03
              -2.4054621842144026E-03
              -6.3769602096819874E-04
               1.5489929697830498E-02
               1.3069921223463838E-03
              -6.9372782553938266E-03
              -1.9392576892345141E-03
               3.8783934856446559E-03
              -1.1502863200964939E-02
              -4.4517040022800745E-03
              -2.0868335486795920E-03
              -4.4916862949085229E-03
              -7.9538039640630574E-03
               8.5486366713229695E-03
               3.1416536549875133E-03
              -2.8759390112679151E-03
               8.0862457086301968E-03
              -1.1889522163049913E-02
              -6.0329587631959209E-04
              -2.5287206692296798E-03
               1.8239144648018991E-04
               1.5456752005732953E-02
              -8.2317807336117089E-03
              -1.0414922265901256E-02
               7.9574951289397376E-03
               8.8258796451142676E-03
              -5.3639829302899351E-03
               1.2819302693459470E-02
               1.7228794497072611E-03
               4.1993009262277928E-03
              -1.0714211582637476E-02
              -5.5824632003954261E-03
               1.3659612298796406E-02
              -5.6274585379343309E-03
              -1.3093096612669913E-02
               1.4818434945892935E-02
              -3.9396268178265616E-03
               5.6716211069633895E-03
               4.0346783222411477E-03
               8.7018260595140553E-04
              -6.2062735558441624E-03
              -8.0923482760651075E-03
              -1.6000810386401047E-03
              -1.4187828235793582E-02
               1.3672166130601373E-02
              -1.1656717350526586E-03
               5.1588739563890344E-03
               2.7354002294793459E-03
               1.3168038548294295E-02
               3.7228217413561144E-03
              -1.0011687801130901E-02
               1.3532859582897927E-02
               3.0928144848896325E-03
              -1.2983786312291565E-02
               2.8353803632869858E-03
              -3.2293533003895539E-03
               4.5161158886443051E-04
              -9.5591654139574773E-03
              -9.7542259850799098E-04
              -1.9756434086091575E-04
               1.2060673004800650E-03
               3.8478155595372283E-03
               3.6944707873774476E-03
               5.2428528232213818E-03
              -9.9899316223651825E-03
              -4.2188631988690495E-04
              -7.7637992520059622E-03
               1.3162698765096927E-02
              -2.6264078471765471E-03
              -3.5151388782800833E-03
              -3.6012531915368138E-03
               3.4504357246328311E-03
               7.8346149397246108E-04
              -1.7639263279561701E-03
              -1.1482358675584579E-02
              -6.3160809803142065E-03
              -1.5257115623012710E-03
               1.6759566851302907E-02
               5.4427064446813745E-03
              -4.4632445777997307E-03
              -8.6447245168601774E-03
              -2.7399423687133155E-03
               2.9380729369942989E-03
              -1.5840829277695197E-03
              -1.2222350885045022E-03
               3.5386670280286719E-03
              -6.5841693520497118E-04
              -1.8262179703714804E-03
               2.9724929283547253E-03
              -3.5273504978026336E-03
              -2.4619077592042608E-03
               2.9812958292739886E-03
               3.3851400989028143E-03
              -3.9892010513573797E-03
               2.1244182172073460E-02
              -1.0101738535185888E-03
              -1.8539355132281631E-02
               1.5644525782117443E-02
              -3.7848357313313196E-03
              -7.4912726053090210E-03
              -5.2685108164161592E-03
               5.5153484620588424E-04
              -1.0589465805533813E-02
               2.2855173662816881E-02
              -4.4164087949197170E-03
               1.1886215234761343E-05
              -8.0356873325473401E-03
               1.7661737293332663E-03
              -4.2783767580710898E-03
               2.4620050325250245E-03
               4.6633070469216196E-03
              -1.5056268200993749E-02
               6.1151909460156958E-03
               6.4011726549331877E-03
              -1.2723594142242046E-02
               8.7134277914518270E-03
               1.3735557963326544E-02
               1.6216734536806652E-03
               4.7792722917210824E-03
               7.1132794711443797E-03
              -9.6927011372058627E-03
               5.9960599652700260E-03
               6.5754316235418740E-03
              -1.1444891567971994E-03
              -8.1114189840633295E-03
              -6.3745904062624320E-04
              -6.6829129144962453E-03
              -8.8576672634979191E-04
               5.7914402510224122E-03
               2.8488838386931193E-03
              -9.5940047279439722E-03
               9.7233220882254352E-03
              -3.1526126830335845E-03
              -2.4278932825581319E-04
              -1.5471890099076424E-03
              -1.4466177292209208E-04
               1.0937395451358579E-03
              -6.2940899084919255E-04
              -3.6458744329892156E-03
               1.6497371813105699E-03
              -5.0490456821473120E-03
               2.4577070186261054E-04
               1.0324589042816001E-02
              -1.0140961426625428E-02
              -2.6891063762382868E-03
              -4.3815228390838038E-03
               6.8111545901325572E-03
              -1.0654505336573410E-02
              -2.4439976312343303E-03
               8.4724426367267808E-03
              -1.9827476935830243E-03
               8.2198740891767774E-03
              -8.0680095361444909E-03
              -1.2305365859912367E-02
              -6.9341643008396690E-05
               5.4025195456944806E-03
              -8.8697186080991565E-03
              -7.6110407274259722E-03
               1.6298113251387763E-03
               9.2895108760018240E-03
               9.0154604215936362E-03
              -4.6613840316581884E-03
              -4.3516578086840035E-03
              -5.0538688518634899E-03
               1.7428257053894039E-03
              -1.5172059520380499E-04
              -5.2647548905993026E-03
              -1.1673088170207322E-02
               2.1692975422200615E-02
               2.8931283312608204E-03
              -1.1917524113187810E-02
              -6.0588221412277762E-03
               4.6331419247479149E-03
              -3.5341534436980973E-03
               3.6107641059756365E-03
              -9.0446496342479210E-04
               5.8834950422200849E-04
               5.8388330896642976E-03
              -7.6755371010812550E-03
               1.7857950839092218E-03
              -3.8970382133710294E-03
               2.3723811181906216E-03
               1.1271451681872397E-03
               9.2617971354315258E-03
               5.1335466040603177E-04
              -2.0463605299439855E-03
               9.4046012210491944E-04
               9.5741250955584372E-03
               6.6270405264969015E-03
              -9.0380976888563137E-05
              -3.8814719099175667E-03
               2.1918478973102914E-03
              -1.1241709518485949E-02
               1.2098343950397447E-02
               3.3804559625473854E-04
               6.1359557189470150E-03
              -7.0233995084785826E-03
              -4.6094504213612644E-04
              -3.3544267974062463E-03
              -3.3963181548768788E-03
              -1.1419974321034997E-03
               1.1864033870854953E-05
               3.1502116923048636E-04
               2.7169872007232692E-04
               7.7947743357228592E-03
               6.6637842341093758E-03
              -1.1088298761811772E-02
               2.7957208286183430E-03
               9.2447564926949734E-04
              -3.1384898568355955E-04
               4.2267314216932672E-03
               7.0579985970495151E-03
               1.2784518937133955E-03
              -2.5738913291525873E-04
              -8.8594472254438228E-03
              -5.9429125464617134E-03
               3.1168766315585539E-03
              -4.3858834530037154E-03
               1.4390900965449520E-03
               1.1076867192548994E-03
               3.5389299389520135E-03
               8.7954061171241547E-04
              -3.8464079521318638E-03
               1.0904566144790013E-02
              -1.3142490752679222E-02
              -4.7205721805627688E-04
               1.6466692315606971E-05
              -1.6866650400701585E-03
              -8.2301511788491818E-03
              -2.9796012643661914E-03
               8.3251224439578487E-03
               3.6513289815218240E-04
               3.5036170873033630E-03
              -8.9494737269691284E-03
              -1.0221086026769936E-02
               1.5255483953639400E-02
               3.4200252146802126E-03
              -1.2013940378264170E-05
              -1.5158153240539553E-03
              -1.4943278194334117E-02
               7.9053693244086499E-03
               1.7504607343245911E-03
              -1.3668251998409466E-02
               1.1433391781180155E-03
              -5.8070932972186283E-03
              -3.7690386370670872E-03
              -3.0509369052927524E-03
               1.3014629209572821E-02
               4.0541942186168704E-04
              -2.2678380933143726E-03
              -6.1722397460573161E-03
              -6.6335122380326277E-04
              -6.5367762141672588E-04
               3.1348103652607722E-03
               1.2833603525440431E-03
               3.5997173879118651E-03
              -5.0214429782109271E-04
               1.7413854794567315E-03
               1.0211147852708154E-02
               4.0719859612577316E-03
              -6.5150849285065208E-03
               1.0399552273435866E-03
               5.2460981569677750E-03
              -2.8047957615988765E-03
              -1.5315679691950202E-03
               1.0635241722988431E-02
              -5.9932983033155526E-03
              -1.3189925420049020E-02
               2.0169651500170239E-03
               4.3876501375341758E-03
              -5.6272377374586696E-04
              -3.8549938250254209E-05
              -1.0526213469008627E-03
              -5.5452401032790519E-03
               5.9860463362530216E-04
               2.9806422026682567E-03
              -2.6469741589392787E-03
               8.4882605547486872E-03
               6.4986645673306459E-04
              -9.9746170552612997E-05
               3.1742566064183520E-03
              -3.3002874499641569E-03
              -2.9860209749338670E-03
               2.5937995834390557E-03
               3.9676962086988270E-03
              -6.1212564643946677E-04
              -3.0013223514567614E-04
              -1.8889365313952821E-03
         &END THERMOSTAT_ENERGY
         &RNG_INIT
Wiener process for Thermostat # 1        1 F T T   1.0570193072987602E-01        2554248455.0        3733268398.0        2096963647.0         915983833.0        1292997779.0         989563289.0             12345.0             12345.0             12345.0             12345.0             12345.0             12345.0             12345.0             12345.0             12345.0             12345.0             12345.0             12345.0
Wiener process for Thermostat # 2        1 F T T  -5.0729818522276993E-01         187792199.0        1332764939.0        1272087322.0         282682701.0         988697858.0        4086000388.0        3692455944.0        1366884236.0        2968912127.0         335948734.0        4161675175.0         475798818.0        3692455944.0        1366884236.0        2968912127.0         335948734.0        4161675175.0         475798818.0
Wiener process for Thermostat # 3        1 F T T   8.9774137220556466E-02        3755061031.0        1753083868.0        1351179932.0         343881147.0        3312142877.0        1244557929.0        1015873554.0        1310354410.0        2249465273.0         994084013.0        2912484720.0        3876682925.0        1015873554.0        1310354410.0        2249465273.0         994084013.0        2912484720.0        3876682925.0
Wiener process for Thermostat # 4        1 F T T   2.1447125495896904E-01        2430503636.0         902227617.0        3039217662.0         205693714.0        2375800914.0        4220709598.0        2338701263.0        1119171942.0        2570676563.0         317077452.0        3194180850.0         618832124.0        2338701263.0        1119171942.0        2570676563.0         317077452.0        3194180850.0         618832124.0
Wiener process for Thermostat # 5        1 F T T  -7.4974817695318574E-01        3949927612.0        4293465109.0         224208328.0         677588237.0        2173092809.0        2514687022.0        1597262096.0        3906379055.0        3312112953.0        1016013135.0        4099474108.0         275305423.0        1597262096.0        3906379055.0        3312112953.0        1016013135.0        4099474108.0         275305423.0
Wiener process for Thermostat # 6        1 F T T  -2.3195632299180402E+00        4147399821.0         968438491.0         174961265.0         382156541.0        3672303660.0        2385050302.0          97147054.0        3131372450.0         829345164.0        3691032523.0        3006063034.0        4259826321.0          97147054.0        3131372450.0         829345164.0        3691032523.0        3006063034.0        4259826321.0
Wiener process for Thermostat # 7        1 F T T  -8.3038096976097500E-03        3725962017.0        3124905816.0        1692649901.0        3685368087.0         990134651.0        3321809881.0         796079799.0        2105258207.0         955365076.0        2923159030.0        4116632677.0        3067683584.0         796079799.0        2105258207.0         955365076.0        2923159030.0        4116632677.0        3067683584.0
Wiener process for Thermostat # 8        1 F T T   7.2955713326517235E-01        1426374835.0        1022225665.0        3431852557.0        2945126969.0        1347790872.0        2047858768.0        3281794178.0        2616230133.0        1457051261.0        2762791137.0        2480527362.0        2282316169.0        3281794178.0        2616230133.0        1457051261.0        2762791137.0        2480527362.0        2282316169.0
Wiener process for Thermostat # 9        1 F T T  -8.3876742673612970E-01        3633457436.0         863053678.0         665967915.0         928783000.0        4027924725.0        3556250224.0        3777646647.0        1837464056.0        4204654757.0         664239048.0        4190510072.0        2959195122.0        3777646647.0        1837464056.0        4204654757.0         664239048.0        4190510072.0        2959195122.0
Wiener process for Thermostat # 10       1 F T T  -6.7138423863751628E-01        3282585865.0         909372753.0         488063086.0        2442536289.0         174422437.0         477575080.0        4215590817.0        3862461878.0        1087200967.0        1544910132.0         936383720.0        1611370123.0        4215590817.0        3862461878.0        1087200967.0        1544910132.0         936383720.0        1611370123.0
Wiener process for Thermostat # 11       1 F T T  -7.2169956836733329E-02        3039538231.0          25912629.0        1608189467.0        1823124278.0        2331127605.0        2449500504.0        1683636369.0         362165168.0         814316280.0         869382050.0         980203903.0        2062101717.0        1683636369.0         362165168.0         814316280.0         869382050.0         980203903.0        2062101717.0
Wiener process for Thermostat # 12       1 F T T  -6.7722400494670465E-01        2762226669.0        4262778377.0        2250707948.0        3120407528.0        3704866228.0        1185520965.0         272317999.0         166758548.0         310112982.0         201045826.0        1680231254.0         118290799.0         272317999.0         166758548.0         310112982.0         201045826.0        1680231254.0         118290799.0
Wiener process for Thermostat # 13       1 F T T  -7.3817531449270457E-01        3689403510.0         367299738.0        3636386471.0        1925893934.0        3355800516.0        3520562622.0        2245755202.0        1652682525.0        2865544364.0         721509566.0         209733568.0         592362218.0        2245755202.0        1652682525.0        2865544364.0         721509566.0         209733568.0         592362218.0
Wiener process for Thermostat # 14       1 F T T  -1.1382067441366517E+00        3364395678.0        3315693013.0        2647598954.0        3098747655.0        1899656659.0         516312086.0        3003961408.0        3529909391.0          14538032.0        3603919910.0         566682685.0        1235016484.0        3003961408.0        3529909391.0          14538032.0        3603919910.0         566682685.0        1235016484.0