 # Version information for this restart file 
 # current date 2023-12-18 13:41:29.976
 # current working dir /scratch/mj3313/comp-lab-class-2023/Week12/Runs/Water
 # Program compiled at                              Sat Dec 12 18:27:15 EST 2020
 # Program compiled on                                         cs001.nyu.cluster
 # Program compiled for                                                nyu-intel
 # Source code revision number                                       git:8c64c6e
 &GLOBAL
   PRINT_LEVEL  LOW
   PROJECT_NAME water_aimd_1ns_every0.5fs
   RUN_TYPE  MD
   WALLTIME 21600
 &END GLOBAL
 &MOTION
   &GEO_OPT
     OPTIMIZER  BFGS
     MAX_ITER  100
     MAX_DR     3.0000000000000001E-03
     &BFGS
     &END BFGS
   &END GEO_OPT
   &MD
     ENSEMBLE  NVT
     STEPS  2000
     TIMESTEP     4.9999999999999994E-01
     STEP_START_VAL  1000
     TIME_START_VAL     4.9999999999999636E+02
     ECONS_START_VAL    -1.1023558357480224E+03
     TEMPERATURE     3.0000000000000000E+02
     &THERMOSTAT
       TYPE  GLE
       REGION  MASSIVE
       &GLE
         NDIM  5
         A_SCALE     1.0000000000000000E+00
         A_LIST     1.8595758612559999E+02    2.7263853498399998E-01    1.1526100454610001E+01   -3.6414578262600003E+01 \
             2.3173375816020001E+02
         A_LIST    -2.7809524712060002E-01    8.5951591808710006E-05    7.2189048017650004E-01   -1.9844539343859999E-01 \
             4.2409257583420001E-01
         A_LIST    -1.4825808131210000E+01   -7.2189048017650004E-01    1.3590902121280000E+00    5.1498896280349999E+00 \
            -9.9949268450990001E+00
         A_LIST    -1.0372189126880000E+01    1.9844539343859999E-01   -5.1498896280349999E+00    2.6661910891169999E+01 \
             1.1507715495310000E+01
         A_LIST     2.1801346360420001E+02   -4.2409257583420001E-01    9.9949268450990001E+00   -1.1507715495310000E+01 \
             3.0958394565589998E+02
         &THERMOSTAT_ENERGY
              -4.0943464260028532E-03
              -7.6080805808760474E-05
              -8.2930490814850713E-04
               7.8444389282731827E-03
              -6.2005127903837767E-03
               6.7654448090107080E-03
               1.6312397331780762E-03
              -6.0272697707332082E-03
               7.4013192960338163E-03
               5.0637841141972255E-03
               9.4842036512348127E-03
              -3.5661227218988390E-03
              -5.7460657478445960E-03
              -5.2830709257461550E-03
               2.7628854843540800E-04
              -4.6123968974260176E-03
               1.1667418506468715E-02
              -3.5453042716453633E-03
               6.5621023894385172E-03
              -6.2683092658954685E-03
               5.1662071233654606E-04
               1.5443262416467369E-03
              -1.0412176815207917E-03
               9.9512921637782948E-04
              -4.2337562959203967E-03
               2.3984690579613457E-03
               1.9097322991628973E-03
               2.5573594928544178E-03
               4.1455782044072997E-03
               8.7839958390377644E-04
              -6.8172653047575502E-03
              -2.3911266182073188E-04
              -1.1176822342390719E-04
               4.8276393696805742E-03
              -1.2015300693269816E-02
               1.1215868329045567E-02
              -1.6662607988234281E-03
               2.7051301312727098E-04
              -5.0475315022161502E-04
              -5.2720990357457958E-03
              -4.0471327817850613E-03
               1.8763156256636137E-03
               2.7714956752153659E-03
               7.3180037111105376E-03
              -4.6737187866384942E-03
               3.7190355287421229E-03
              -2.2824498366808212E-03
               4.3085541481455531E-03
              -1.0554246681232138E-03
              -5.3632443920685136E-03
               2.6864459279078655E-03
              -5.0049367747847014E-03
              -2.4836811639977045E-03
               7.6605071290434474E-03
              -5.1145617808778894E-03
               2.3468564780912016E-03
              -2.7519139197086165E-03
              -4.3131651352592887E-04
              -1.0922904537841126E-03
               5.6299487225153480E-03
               8.4602437200577212E-04
              -1.9084704666490347E-03
               1.4312393915740846E-02
              -4.1261014234776523E-03
               8.2987364899280228E-04
               2.3505942859392869E-05
              -1.0140176655970367E-02
               1.8975879584789276E-03
               1.5433468002703314E-02
               2.4240471101044528E-04
              -1.5046032095202904E-03
              -9.1878540918314214E-03
              -1.3182724840942258E-03
              -1.3545051060797962E-03
              -3.7239671812331412E-03
              -1.0857401953924102E-02
               3.0630490479131092E-03
               1.0331288415614264E-03
               8.8120568260256736E-03
              -8.9575727040388919E-03
               9.5724142814685061E-03
              -7.7985232090919390E-04
               2.0179232401840261E-04
              -1.8278117135835648E-03
               8.7699316785396289E-04
               5.7612927294390754E-03
              -6.1825535325362292E-04
              -1.0586295418163795E-03
               3.3145896703137981E-03
              -1.1011214399451448E-03
               1.6374530303837626E-03
              -7.5279296899137954E-03
               1.1005124942149269E-03
              -3.5253732325540256E-03
              -8.9432427144457618E-03
               4.0930702996246496E-03
               8.1835306748979444E-03
              -1.9805495043931616E-03
               4.4057005006895526E-03
               2.5821485059382844E-04
              -2.3339357151235889E-03
              -7.2970834322869512E-03
              -1.0658385636303715E-03
              -3.8732184563983079E-03
               5.7795413211383121E-03
               5.4741198297709719E-03
               1.5524522551217861E-03
               7.4374856110035999E-04
               2.6121031681121264E-03
              -7.3184025527201170E-03
               2.8690789521704204E-03
              -9.2157211088618658E-04
               2.0824624515439413E-03
               6.0160071494769025E-03
               3.2233215688924847E-03
               5.3469659396829378E-03
              -1.7561263603342359E-02
               4.6149311967829893E-03
               1.6321677359749317E-03
               3.8682638932737196E-03
               4.4004299858536869E-03
               1.4035739355198105E-03
              -2.4135986387015264E-03
              -7.8364934605515120E-04
              -3.6101842394250811E-03
              -8.6687367566018155E-04
               1.6791956263752517E-03
              -1.9359164268650830E-04
              -9.4328645971793960E-04
              -4.7906707768010075E-03
               7.0054187109862059E-05
               6.8187210358723093E-03
              -5.1697783154348543E-03
               8.8621833434833226E-03
               1.9989516377194889E-04
              -3.2858938051633633E-04
              -2.0346580604313370E-03
              -5.8908821498732397E-03
               4.0987187658419102E-03
              -8.9294613259954733E-03
               6.1350626003535101E-03
              -1.8424073000319885E-03
               1.8585214029966348E-02
              -4.6054144966613314E-03
              -1.6999707580395286E-03
               4.0261229085742701E-04
               8.0409097488979928E-03
               1.7431848790011846E-03
               1.5440371511942367E-03
              -4.1043781204368659E-03
              -8.1997630945145408E-03
               1.6079117590888032E-03
               1.9809720254229343E-03
              -2.1665310609921959E-03
               2.5884459604435554E-03
               1.0133371893977165E-03
               5.4484554153890630E-03
               3.4306068492667138E-04
              -4.5603253623098744E-03
               2.6654912279676091E-03
              -6.5175736714337676E-03
              -2.9077129429371054E-03
              -2.1032353803971063E-03
               5.4021754112333121E-04
               3.3473058082849776E-03
               6.5375916168053340E-03
               4.0122560848730414E-03
              -6.0339476752273441E-03
              -1.0840501509996690E-02
               7.4763410174385099E-03
               4.6617511140351493E-04
              -5.4256344272362016E-03
              -8.7581117635206717E-04
               1.0812237635954031E-04
              -5.3860376940190590E-03
               2.4965568271393748E-03
               1.3320210482975908E-03
               5.9706829848105401E-03
              -2.0181295438961317E-03
               3.6586986458509866E-03
              -3.7219987197782385E-03
               1.2615233206437356E-03
               3.9277811350690245E-03
              -8.6805616423918895E-03
               7.5358490748384504E-03
              -3.6162667987219769E-03
               1.1306501957306456E-03
              -6.6365093660345929E-04
              -3.8279095903808588E-03
              -1.4714120950011314E-03
               1.6317458796332011E-03
              -2.2871513336891868E-03
              -4.9580946898661570E-03
               4.0988303994736949E-03
               6.1391655006827446E-03
              -2.3608294348775320E-03
              -5.5884863695603703E-03
               2.7625958230531639E-03
              -2.2300860942337884E-03
              -7.6148307604856575E-04
               1.3980465276501085E-03
              -5.9227248097040979E-03
               1.1251745869947195E-02
              -2.1476243172205839E-03
              -2.8662030639704560E-03
              -3.3170666234505525E-03
              -1.6910170560268045E-03
               2.3594617595010412E-03
               3.1658748188031756E-04
               1.1641970545212879E-03
               6.8041315610418568E-03
              -4.8128142605337163E-04
               3.8749219307123916E-03
              -1.1008026673373765E-02
               2.7480712388201745E-04
               3.9560811405580662E-03
              -4.2681420530005544E-03
               5.4894418467734173E-03
               1.4987498114423935E-04
              -6.8072303807633046E-03
              -2.6231374242307952E-03
               2.3235504613987371E-03
              -9.6041289197615646E-04
               5.8837598923730302E-03
              -2.2374232973908762E-04
              -1.1258298863488897E-03
               1.9202450858055030E-03
               2.7764317951610141E-03
              -3.8350996008124742E-03
               1.5742222975881218E-03
              -6.7732133025210457E-03
               2.5862386660605234E-03
               3.0215977337410931E-03
              -4.3554093102692940E-03
               3.6962699966293176E-03
               1.8885914961436657E-04
              -2.0190700273892180E-03
               1.5732694904834991E-03
               6.2962248902346122E-03
               1.3735562765104664E-03
               6.9148420389016866E-04
              -1.0164380005629262E-02
               4.6421459556291872E-03
               1.4917961937321047E-03
              -2.6852576487777146E-03
               1.9765006875307914E-03
               6.1946155328903530E-03
              -6.8013577842877954E-03
              -7.5492599098633795E-04
               7.2631348606677030E-05
              -1.3644389032191627E-04
              -7.0881055468399298E-05
              -5.8420978732631398E-03
              -3.7755173858073873E-03
               3.3757238679881919E-03
              -2.1578281977774690E-03
               1.0430653868290335E-02
              -3.3388039478268665E-03
               2.8868715648830276E-03
              -8.5539604703527197E-03
               8.5834037855386947E-03
               2.5554603444239115E-03
               3.0101972640453347E-03
               1.4712450592378988E-03
               8.2859513549672255E-03
              -4.5212157111020413E-03
              -2.1033295782916894E-03
              -2.9080758457837625E-03
              -6.7080959468127227E-03
               5.0670951180246046E-03
              -1.1282231595672678E-03
              -3.3435125430271587E-03
               1.4694373779686695E-03
               7.4309188738227927E-03
               2.9970002115030795E-03
               2.0946137726274051E-03
              -2.1640126608223540E-02
               1.3990911252120626E-02
              -3.9842458858205757E-03
               6.0147160832067286E-03
              -3.5767373408291635E-03
               2.6651318241101484E-03
               1.2454357093894525E-02
              -1.8108088756203047E-03
              -1.0014702756346664E-02
              -5.6858651173325040E-03
               3.0925195141782249E-03
              -5.6242522284213319E-03
              -1.9665625856824425E-03
              -3.6166340735667864E-03
               8.9224230274120625E-05
               3.8344544494289348E-03
               8.9847785944885423E-03
              -3.5049502791190241E-03
              -7.1588260284069873E-04
               5.0596640339551921E-03
              -5.3457156535267440E-03
              -1.6817701789153061E-03
              -2.4599425476131741E-03
              -9.2103842131332526E-04
              -2.1989291263212088E-03
               7.4951017996634532E-03
               8.8584480659134374E-04
              -1.5108434435502469E-03
               4.8702317577664399E-03
              -8.5599320608743396E-03
               2.9473725193972355E-03
              -2.1427521118708871E-03
              -3.5815141794013029E-03
               1.1126046202154339E-02
              -4.8802426546439093E-03
              -7.8858714007092132E-03
               2.2508498710312819E-03
               7.9069247054339067E-03
               1.7097333528938367E-03
               6.6647607423871999E-03
               9.6673913105525572E-04
               1.8612377160465957E-03
              -3.3083694995118609E-03
              -6.3663741811650562E-03
               9.1663511329601165E-03
              -6.5538550341244419E-03
              -8.0849409932429537E-03
               1.0647059059550719E-02
              -3.4184383819983494E-03
               2.4298813020823748E-03
               2.4354691777342058E-03
               6.2961050618467055E-03
              -3.8936812970578254E-03
              -4.6807592958236690E-03
              -6.2175060957713694E-03
              -7.5352216766223241E-03
               1.0729788644363721E-02
              -1.2756996019792821E-03
               2.5644191068269367E-03
               1.5708822225268793E-04
               1.6936355772578335E-02
               1.8023704636572773E-03
              -1.0084279221582249E-02
               4.1668456183689790E-03
               7.5890621423749648E-03
              -8.9014986689708153E-03
               8.6997494137414349E-04
               1.9080170132948300E-03
              -8.9433210237397016E-04
              -1.0889890485562909E-02
               4.3335664913850113E-03
              -1.0284501720043010E-03
               4.2565045118134175E-03
              -9.2948562638945069E-05
              -3.2802176048176701E-03
               1.9708387536444857E-03
              -7.2765583129795293E-03
               1.9439459593744892E-03
              -6.1618313461791127E-03
               1.0349163382742686E-02
               7.1857527578118689E-04
              -1.4056705465351805E-03
              -4.5874340190153904E-03
               7.2729952660852693E-03
              -1.1579963096700974E-03
              -3.6240767907811197E-04
              -1.0667797646821874E-02
              -2.8186826020762602E-03
              -5.9777366719853385E-04
               1.3294442910259989E-02
               3.8898513087814567E-03
              -6.7095379164991225E-04
              -3.8343250158927957E-03
              -1.6132409583759623E-04
               1.8712875424946496E-03
              -2.3013286293069764E-03
              -7.3303787318926839E-03
              -5.9684730096052603E-03
               7.2653701933862013E-03
              -1.0119438094592582E-02
               8.6263378162112821E-03
               3.3887394147623009E-03
              -1.0032319940770096E-03
               5.7997884767067094E-04
               1.2620468088711959E-03
              -3.2639641892411660E-04
               1.5399978136647757E-02
              -2.7793476258360277E-03
              -1.4737951785485010E-02
               1.0338772357498695E-02
              -5.1623566700580272E-03
              -4.9538536368325583E-03
              -2.7188053186019039E-03
              -8.9562479373803095E-04
              -6.9179334508332963E-03
               1.2993797689229748E-02
              -4.6544680057510507E-04
              -1.6699788460277335E-03
              -4.8773458432932511E-03
               1.4504275888027292E-03
              -1.8438396938457789E-03
              -8.1894598484771473E-04
               4.8643007406058191E-03
              -1.0086072940064533E-02
               3.0577641668749537E-03
               1.1321950189528404E-02
              -9.5053665346717022E-03
               9.0922847274294699E-03
               7.7366691306138945E-03
              -1.6965889584791341E-03
               2.4578041079616137E-03
               7.6224735918485166E-03
              -9.0986634856373011E-03
               3.1696803414529716E-03
               5.6158349887426410E-04
               8.1330893317385362E-04
              -2.2274610259619986E-03
               4.2477638801024925E-03
              -5.9768971332742563E-03
              -3.1501121639214247E-03
               5.0463422671709352E-03
              -2.0038788372376678E-03
              -3.4355010901767399E-03
               1.0221424721982805E-02
              -1.5492759635141115E-03
               2.4464616352019705E-03
               4.9033037597379613E-06
               3.4888798682684956E-03
              -3.0328241611673356E-04
              -1.9164703579842039E-03
              -8.3214089370931606E-03
               4.8834983932434821E-03
              -2.4648275125677397E-03
               1.0310161116283412E-03
               9.2811244454066230E-03
              -8.8370062487468336E-03
               7.0200286695822571E-05
              -9.8393438171152600E-04
               2.8268174812768644E-03
              -1.0427550192507858E-02
               1.4171205932233680E-03
               4.2546119462740896E-03
               7.7401742970391123E-04
               6.3312456049805146E-03
              -2.4485867897690362E-03
              -8.6927759219893926E-03
               3.4671176555441351E-03
               4.9947692520846557E-03
              -3.3337050736981255E-03
              -6.0029885530137831E-03
               1.4159064006416201E-03
               4.6666947654731240E-03
               3.5990522673387208E-03
              -1.1665610882799562E-03
              -7.0642294383940307E-04
              -2.1896003388237051E-03
               3.4851950032711095E-03
              -2.6570182852247810E-03
              -6.5135783183436916E-03
              -4.2906805232732536E-03
               1.5346290076516325E-02
              -1.6137409468976397E-03
              -1.1360440648565801E-02
              -4.9012108737051356E-03
               4.2331955503639553E-03
              -5.7139997966180987E-03
               3.1997180428060476E-03
              -8.9594136472661646E-04
               5.7942655877148402E-03
               7.6146768733632991E-03
              -2.7214259316585077E-03
              -1.1936737521300064E-03
              -3.1731645957878982E-03
               1.7724297556620579E-03
               2.4700194062972662E-03
               7.6316035842669957E-03
              -3.2080124642176046E-03
              -2.6533782386021533E-03
               5.3755037350213886E-03
               4.8150924167005265E-03
               5.7971226021330778E-03
               1.6994780810527150E-03
              -3.2525938095283040E-03
               4.6819084917783440E-03
              -6.7134150635567401E-03
               3.7619996531846295E-03
               2.3545707416507060E-03
               3.8819963071212698E-03
              -7.3611263196016498E-03
              -9.8553222101907707E-04
              -1.5818931252810369E-03
              -3.5399108614982567E-03
              -1.9315570944931691E-03
              -1.4308086050330378E-03
              -1.1675187900441588E-03
              -1.7330703515807350E-03
               9.8349641118093321E-04
               1.2904318202385833E-02
              -6.7466639783371066E-03
               2.5696485694259330E-03
               1.2773476930205930E-03
              -1.7894833403395594E-04
               2.2026413819734637E-03
               3.7615931785045186E-03
               3.4845080275491148E-03
              -1.6668906232129385E-04
              -5.7986309889745489E-03
              -6.5905641877728877E-04
               1.8146441264271771E-03
              -3.7813172988779404E-03
               1.1892666380215531E-03
               3.0063994278198753E-03
               2.8644790143044639E-03
              -1.7009543734282408E-04
               1.5898294855684284E-03
               1.0915387634776971E-02
              -1.7111948850600276E-02
              -3.7786244053702962E-04
              -6.9358208032027169E-04
               2.3567304905726923E-03
              -9.0791911359689656E-03
               4.9776945401719553E-03
               4.9924797265290142E-03
              -1.5168001038577182E-03
               6.6621697128089585E-03
              -1.3351867267165704E-02
              -4.5267043795397116E-03
               8.2901865517796425E-03
               1.3165870362763078E-03
               6.3778205466432497E-04
              -6.9130015775786214E-03
              -6.8809213010355037E-03
               4.8958335013817135E-03
              -2.5885552640000130E-03
              -5.9971898649701432E-03
               6.5114277446522270E-04
              -3.7952098563300922E-03
              -1.7996592668541055E-03
               3.4798349826318242E-03
               4.5594760018818192E-03
               9.1593011743510929E-04
              -1.6838545511944549E-03
              -9.1503291477227043E-03
              -5.0678494626682415E-04
              -3.8773301364031713E-03
               1.0684054815247191E-03
              -6.9309443996944564E-04
               4.2218038727565741E-03
               3.0490993605581935E-03
              -1.1835134475607313E-03
               7.5895657576204893E-03
               2.3087879119784304E-03
              -6.7492014252744257E-03
              -1.0912290897974128E-03
               3.4368377024952095E-03
              -4.2447681187689325E-03
               2.4122459287421072E-04
               4.7046161320555072E-03
               1.4602754323530269E-03
              -1.2936532576837549E-02
               4.1724186686638680E-03
               3.3917895602111167E-03
              -2.4816052147390100E-03
               6.8977459398062802E-04
              -1.2529080872567596E-03
              -1.0656163639917113E-03
              -1.9959989224200354E-03
               1.1422717535504594E-02
              -3.9284799406805321E-03
               8.9680217655011083E-03
               1.3104308686503992E-03
               9.6641970311877733E-05
              -4.0093852124751823E-03
              -4.2524113915482333E-03
              -6.0461203254063064E-03
              -9.0494504211248135E-04
               9.7221679772331766E-03
               3.9592060377001952E-03
              -3.4216184891018506E-03
               2.0844254584677295E-03
         &END THERMOSTAT_ENERGY
         &RNG_INIT
Wiener process for Thermostat # 1        1 F T T  -9.8236738167888460E-01         226733040.0        4248387519.0        1164353849.0        2758509449.0        3644127687.0        1764793484.0             12345.0             12345.0             12345.0             12345.0             12345.0             12345.0             12345.0             12345.0             12345.0             12345.0             12345.0             12345.0
Wiener process for Thermostat # 2        1 F T T  -1.4171306107827426E+00        1528154308.0        2775625301.0         197130159.0        1452211673.0        1835562137.0        1983376171.0        3692455944.0        1366884236.0        2968912127.0         335948734.0        4161675175.0         475798818.0        3692455944.0        1366884236.0        2968912127.0         335948734.0        4161675175.0         475798818.0
Wiener process for Thermostat # 3        1 F T T   8.6049543281786645E-01        2248570378.0        1724762616.0          52903713.0        3229622658.0        3199004837.0        4241126217.0        1015873554.0        1310354410.0        2249465273.0         994084013.0        2912484720.0        3876682925.0        1015873554.0        1310354410.0        2249465273.0         994084013.0        2912484720.0        3876682925.0
Wiener process for Thermostat # 4        1 F T T  -1.5460863137690717E+00         957380376.0         510326667.0        2247033635.0        2033071685.0        3054261466.0        3462352516.0        2338701263.0        1119171942.0        2570676563.0         317077452.0        3194180850.0         618832124.0        2338701263.0        1119171942.0        2570676563.0         317077452.0        3194180850.0         618832124.0
Wiener process for Thermostat # 5        1 F T T   1.5428690481661575E-01        4203301200.0         738999836.0        1485820986.0          20648636.0        2223680357.0        4294941489.0        1597262096.0        3906379055.0        3312112953.0        1016013135.0        4099474108.0         275305423.0        1597262096.0        3906379055.0        3312112953.0        1016013135.0        4099474108.0         275305423.0
Wiener process for Thermostat # 6        1 F T T   7.0411917217518150E-01        1265311014.0        3687607523.0        1792102642.0         142025920.0         459804801.0        1211121065.0          97147054.0        3131372450.0         829345164.0        3691032523.0        3006063034.0        4259826321.0          97147054.0        3131372450.0         829345164.0        3691032523.0        3006063034.0        4259826321.0
Wiener process for Thermostat # 7        1 F T T  -9.5744195640119531E-02        4040223344.0        4246262317.0         329086624.0          28777921.0        2946509694.0        1489700490.0         796079799.0        2105258207.0         955365076.0        2923159030.0        4116632677.0        3067683584.0         796079799.0        2105258207.0         955365076.0        2923159030.0        4116632677.0        3067683584.0
Wiener process for Thermostat # 8        1 F T T  -1.2413826789147817E-01         252045112.0        2848200345.0         154646410.0        1271924195.0        1873079261.0        3351978939.0        3281794178.0        2616230133.0        1457051261.0        2762791137.0        2480527362.0        2282316169.0        3281794178.0        2616230133.0        1457051261.0        2762791137.0        2480527362.0        2282316169.0
Wiener process for Thermostat # 9        1 F T T   1.0331244080464512E+00        3784506675.0        1914172684.0        3527875272.0        1610827989.0        3855196701.0        1117597481.0        3777646647.0        1837464056.0        4204654757.0         664239048.0        4190510072.0        2959195122.0        3777646647.0        1837464056.0        4204654757.0         664239048.0        4190510072.0        2959195122.0
Wiener process for Thermostat # 10       1 F T T   2.1466585360569199E-01        3057685686.0        2869029583.0         411221469.0        2821893460.0         322924656.0        1143227575.0        4215590817.0        3862461878.0        1087200967.0        1544910132.0         936383720.0        1611370123.0        4215590817.0        3862461878.0        1087200967.0        1544910132.0         936383720.0        1611370123.0
Wiener process for Thermostat # 11       1 F T T  -4.4132046785776799E-02        1554543736.0        2717576499.0        4135075403.0        2618383353.0         642871762.0         249586537.0        1683636369.0         362165168.0         814316280.0         869382050.0         980203903.0        2062101717.0        1683636369.0         362165168.0         814316280.0         869382050.0         980203903.0        2062101717.0
Wiener process for Thermostat # 12       1 F T T  -5.6161533877704317E-01        1770324141.0        3770017049.0         190859559.0         764828178.0        2918138424.0         736540625.0         272317999.0         166758548.0         310112982.0         201045826.0        1680231254.0         118290799.0         272317999.0         166758548.0         310112982.0         201045826.0        1680231254.0         118290799.0
Wiener process for Thermostat # 13       1 F T T   9.7554409384929153E-01        3627045108.0        1898589428.0        2752141753.0          85759421.0        2499273175.0        1137986601.0        2245755202.0        1652682525.0        2865544364.0         721509566.0         209733568.0         592362218.0        2245755202.0        1652682525.0        2865544364.0         721509566.0         209733568.0         592362218.0
Wiener process for Thermostat # 14       1 F T T   1.0647643612361006E+00        2907287648.0        2703557765.0        1318952540.0         278138330.0        3506335210.0        2737196551.0        3003961408.0        3529909391.0          14538032.0        3603919910.0         566682685.0        1235016484.0        3003961408.0        3529909391.0          14538032.0        3603919910.0         566682685.0        1235016484.0