 # Version information for this restart file 
 # current date 2023-12-18 16:30:27.832
 # current working dir /scratch/mj3313/comp-lab-class-2023/Week12/Runs/Water
 # Program compiled at                              Sat Dec 12 18:27:15 EST 2020
 # Program compiled on                                         cs001.nyu.cluster
 # Program compiled for                                                nyu-intel
 # Source code revision number                                       git:8c64c6e
 &GLOBAL
   PRINT_LEVEL  LOW
   PROJECT_NAME water_aimd_1ns_every0.5fs
   RUN_TYPE  MD
   WALLTIME 21600
 &END GLOBAL
 &MOTION
   &GEO_OPT
     OPTIMIZER  BFGS
     MAX_ITER  100
     MAX_DR     3.0000000000000001E-03
     &BFGS
     &END BFGS
   &END GEO_OPT
   &MD
     ENSEMBLE  NVT
     STEPS  2000
     TIMESTEP     4.9999999999999994E-01
     STEP_START_VAL  1938
     TIME_START_VAL     9.6899999999998636E+02
     ECONS_START_VAL    -1.1023558357480224E+03
     TEMPERATURE     3.0000000000000000E+02
     &THERMOSTAT
       TYPE  GLE
       REGION  MASSIVE
       &GLE
         NDIM  5
         A_SCALE     1.0000000000000000E+00
         A_LIST     1.8595758612559999E+02    2.7263853498399998E-01    1.1526100454610001E+01   -3.6414578262600003E+01 \
             2.3173375816020001E+02
         A_LIST    -2.7809524712060002E-01    8.5951591808710006E-05    7.2189048017650004E-01   -1.9844539343859999E-01 \
             4.2409257583420001E-01
         A_LIST    -1.4825808131210000E+01   -7.2189048017650004E-01    1.3590902121280000E+00    5.1498896280349999E+00 \
            -9.9949268450990001E+00
         A_LIST    -1.0372189126880000E+01    1.9844539343859999E-01   -5.1498896280349999E+00    2.6661910891169999E+01 \
             1.1507715495310000E+01
         A_LIST     2.1801346360420001E+02   -4.2409257583420001E-01    9.9949268450990001E+00   -1.1507715495310000E+01 \
             3.0958394565589998E+02
         &THERMOSTAT_ENERGY
              -2.4042436459395279E-03
              -2.3800549596769121E-03
              -1.3236340357294155E-03
               8.0885856229438238E-03
              -1.1514872729210009E-02
               2.3767300434496498E-03
              -9.2795540368825747E-04
              -6.4444802850045172E-03
               1.7300128266693370E-02
               2.8136222503178827E-03
               1.1529655660780659E-02
              -5.2505132202435942E-05
              -2.8013429187021964E-03
              -9.0551390169637345E-03
               1.5321063209972157E-03
              -1.0783314832777890E-02
               1.6690287690309013E-02
              -3.0364115583913468E-04
               9.2663126790521987E-03
              -6.6135250599468698E-03
              -2.7223293451701610E-03
               1.3137733155170863E-03
              -7.4211231230172413E-03
              -6.1028820879011573E-03
               2.4197964433361812E-03
               3.4860949714575701E-03
               1.9167148087039987E-03
               1.3485487292461875E-03
               1.1922352043626544E-02
               2.1289501645684397E-03
               8.2739908936624871E-04
              -3.2395704806804436E-03
               3.9099333265643242E-03
               5.6591217862836584E-03
              -1.7342881563418497E-02
               1.4875699689898577E-02
               1.5032504179525955E-03
              -3.3884451484681262E-03
               1.5183890664207495E-04
               8.0595483594131656E-03
              -5.4094341960984086E-03
              -8.7206886227646791E-03
               9.5038145099280574E-03
               2.7869435808770796E-03
              -4.0666228872288553E-03
               3.9253545625523387E-03
              -1.4163276848880369E-03
               7.2600318353429156E-03
               5.2043887143176431E-03
               9.1389808382598729E-04
              -2.6108745438823684E-03
               4.3210426732866276E-03
              -9.3410092747652912E-03
               4.8060537105905414E-04
              -6.0124568122837362E-03
               5.9998471314653629E-03
              -3.4450078373376180E-03
              -5.2676763234451099E-03
               2.9403141938249443E-04
               1.7405345496940731E-02
               2.4394443734038456E-04
              -8.4746948221066272E-03
               1.6716656122268681E-02
              -5.0728798585983120E-03
               4.1990142447273027E-03
               1.3806893399744573E-03
              -8.0726674543285387E-03
               5.1174237319648206E-03
               2.0997665844390986E-02
              -5.8288190845708684E-04
              -3.3928514067163339E-03
              -1.3706131506419451E-02
              -2.3964849336870781E-03
               1.2531198699265709E-03
              -4.3867302928730695E-04
              -9.8887992040292121E-03
               2.5262188761497749E-03
               2.7619976255583390E-03
               7.3496623965691012E-03
              -1.0568862372498994E-02
               2.1710228825704780E-02
              -3.7712986425252363E-03
               2.4347524763911246E-03
               2.2240963429001775E-03
               5.0434368860704962E-04
               9.2047600530361286E-03
               3.8787257362048085E-03
              -8.7576216472493255E-03
               4.0327162045697340E-03
               1.9023039581314892E-03
               2.0359908182968007E-03
              -9.7766630814827959E-03
               2.5050010733573651E-03
              -5.5969810527698076E-03
              -7.9423401772427699E-03
               4.0702237173893836E-03
               8.7312693025018567E-03
               3.3296048242894621E-03
               5.2376519985017616E-03
               1.0072103715765709E-03
              -1.9698569487666632E-03
              -9.5466058359004874E-03
               2.5556653363671580E-03
              -1.2873666455587008E-03
              -2.4822295359125785E-03
               1.3418105327541835E-02
              -7.2873023250779136E-04
              -4.7953633411715853E-03
               2.7734390731810892E-03
              -5.8003248099028955E-03
               3.5956510111018738E-03
               6.3562902647816590E-03
              -4.5374141412572568E-03
              -5.0554046692227557E-03
               9.7808871351171747E-03
               4.1347439749230084E-03
              -1.4600210971390207E-02
               2.5240657037965660E-03
               4.9180437518661756E-03
               6.9932065573724660E-03
               8.5861747440505280E-03
              -3.7357922720846841E-03
              -1.6226766907333097E-03
               5.6546981551035902E-03
              -9.5683187896027418E-03
              -2.4973219253077365E-03
               3.1140614822946634E-03
               1.3683341364230397E-03
              -2.5371504960683016E-03
               5.5453609861071795E-03
              -2.1369467084429543E-03
               6.0970102756674584E-03
              -1.1927811924981579E-02
               8.2422929030708508E-03
               2.3067130968987080E-03
               8.5618204668686939E-05
              -1.7699470467591970E-03
              -6.7467444812322180E-03
               2.1249275480159130E-03
              -3.1095632674591998E-03
               1.7601198517268426E-03
              -1.7874113647305041E-03
               1.9017605187681457E-02
              -3.3983931057211566E-03
              -7.7218016060638228E-03
              -4.5763280347630982E-04
               7.1557726085860361E-03
               1.0722730871845547E-02
               8.1788806605168356E-04
              -6.2831476819480295E-03
              -1.5150157048389352E-02
               7.2973254407812018E-03
              -1.3017805074824664E-05
              -6.7533323985009309E-03
               9.2218465283471721E-03
              -2.5700975904608720E-03
              -3.9621145827251616E-03
               5.7321593566669934E-03
               8.4293126814861648E-04
               7.9493039115285285E-04
              -1.0899129709699794E-02
              -6.2075940109321982E-03
               4.8371337680241846E-04
               8.9885703729479299E-04
               9.1397346457039643E-03
               1.3241813219042402E-02
               4.8157401180940222E-04
              -1.8092788878870898E-02
              -3.6976511301723154E-03
               1.5020079396701021E-02
              -6.7586883746166108E-03
              -3.2091118224600096E-03
               1.9130973065743556E-03
              -6.7852160409272817E-03
              -3.4064769262530398E-03
               3.1777050221428599E-03
              -1.0774521285423120E-02
               1.6474911708961443E-03
               6.2965002343845448E-03
               1.0421603335385185E-02
              -2.9779287439800251E-03
              -9.6972785862004126E-04
               6.9386092324200521E-03
              -1.8170712346241322E-02
               1.3424391321506387E-02
               2.5011123607998603E-03
              -3.6279306276608453E-03
              -5.1634014559511063E-04
              -5.5953878839169594E-05
              -2.0776555446597796E-04
               3.5194197090322793E-03
              -5.4169187756609777E-04
              -1.0129786923889531E-02
               8.5637156747933475E-03
               7.5418856928108294E-03
              -9.2466933947147681E-03
              -7.3147651686371910E-03
               4.6992300417118809E-03
              -4.9156347580984038E-03
              -4.8838988022853183E-03
              -1.1061268723845923E-03
              -4.5454928948216356E-04
               1.6631914424899273E-02
              -9.1169315941613017E-03
              -6.6771738247034312E-03
               3.2897369779487167E-04
              -3.8276546628198656E-03
              -1.9231308765927195E-03
              -7.5742955484177897E-04
              -3.9091747469951268E-03
               1.2272151535346817E-02
              -6.5055154438542337E-03
               1.4954590009737161E-02
              -6.2851903067714741E-03
               6.0686535420357533E-03
              -2.3328538842855183E-03
              -1.6301732384104373E-02
               1.2277736634351217E-02
               2.9759817001140717E-03
              -1.7135713145125058E-02
              -7.1680369503244622E-04
              -4.0399023080798992E-04
              -1.7937768281543628E-03
               1.6278105627664369E-02
              -1.3901600679990642E-03
               1.2423531687177775E-03
               2.3045609951940827E-03
               1.5705006929784609E-03
               3.8468579109791749E-03
              -3.8226402426871286E-03
              -1.0845067665886577E-02
              -4.2816211403666829E-04
               1.1950376549761769E-02
              -3.4602051296448231E-03
               2.5087434457881519E-04
               4.1367122208326845E-03
              -5.9555437098574374E-04
              -2.6397015783522649E-03
               1.2033727186226386E-02
               6.9684224774461106E-03
              -6.2943133655977831E-03
              -5.5897542254455109E-03
              -6.8964941360588562E-04
              -1.5186398714874341E-03
               2.8532591978955519E-03
               2.8905903551680323E-03
               6.9756155316454691E-03
              -5.0953932696710617E-03
               1.6495469915457869E-03
               2.9769561839334251E-03
               6.5409990946493236E-03
              -9.6092404959703479E-03
              -8.1376250492222503E-03
              -5.9835165498801609E-03
               6.4881648488319277E-03
              -2.0656395280261225E-04
               7.2009928272962053E-03
              -3.1863956978514405E-03
               1.3407983348561813E-02
              -2.0358550255512333E-02
               2.1771243884818395E-02
              -3.8804325522421223E-06
               4.4334041299400918E-03
               2.0601059331647464E-03
               4.5248981501405869E-03
              -8.5789954057147594E-03
               4.9295780531545275E-05
              -5.6543022533553158E-03
               2.9753720720110643E-04
               6.2821762686464232E-03
              -1.0238271401286341E-03
              -4.5402584847745019E-03
              -1.8667937419719707E-03
               8.4837014968404140E-03
               5.7668285725816677E-03
               3.0718526785260543E-03
              -2.9583033699315930E-02
               2.1502022170323227E-02
              -5.3457395348305353E-03
               7.6386178245600681E-03
              -6.7932013718809900E-03
               1.2864162915870328E-03
               8.1019989383241744E-03
              -5.0316057388776828E-03
              -6.8742784475740969E-03
               1.6051129005896917E-03
               1.0030817631955098E-04
              -1.2701687586688298E-02
              -3.0684473671742209E-03
              -2.8201983662717216E-03
              -2.6213530303143603E-03
               1.3558229883278042E-02
              -1.5944519271525355E-03
              -8.3231261448850451E-03
               2.5282075597356244E-03
               1.1646722032488723E-02
              -1.3191125810463705E-02
              -2.2338873072553986E-03
              -3.7426959966141839E-03
               3.4276071649602159E-04
              -1.1551779359281991E-02
               4.9934443661344644E-03
               7.7205855240121985E-03
               1.2959690642678828E-03
               8.4342651429407025E-03
              -1.1960162920592387E-02
              -2.9790900685630938E-03
              -1.0722937460097986E-03
              -8.5562509353842781E-04
               1.6193187334230037E-02
              -7.4329004813768647E-03
              -6.9715496929865714E-03
              -1.2706354565237038E-03
               1.1193464857346999E-02
              -2.6411767860438657E-04
               1.0955105037816130E-02
               2.6338860784783733E-03
               3.8142958339378165E-03
              -8.8167424534131081E-03
               1.3480851639353156E-03
               1.2406450366896768E-02
              -1.5109973832444662E-02
              -1.4093402100564055E-02
               1.6137093461093592E-02
              -6.1921603448196558E-03
               1.0539338879686663E-02
               1.7320298836092248E-03
               4.3751475825614767E-03
              -1.8293570000844387E-03
              -1.7993236852707705E-03
              -1.6118592881033391E-03
              -1.7215642332120723E-02
               9.4263190654832012E-03
              -3.0368191896070137E-03
               5.8035394899553783E-03
               6.0386597182890992E-03
               1.4304042414249946E-02
               3.1797806982619943E-03
              -1.3686575809785084E-02
               1.1720675262840159E-02
               7.7753744146063543E-04
              -7.4604950234878082E-03
               2.0842892734522899E-03
              -6.2021230861296142E-03
              -1.2661449306436464E-03
              -6.2300790959222193E-03
               1.5067865296757947E-03
               4.6413708258443407E-05
               8.7938239726611644E-03
               4.2087543536941446E-03
              -7.2593541358132200E-04
               4.8139523439365874E-03
              -7.8623611472545436E-03
              -2.9842930517370498E-03
              -1.4724979278515057E-02
               1.4744879845479356E-02
               3.1527428327157007E-03
              -8.5715260369513338E-03
              -1.1854171324113800E-02
               1.3427703725905109E-02
               9.4250949476288454E-04
              -4.2208433925884315E-03
              -1.1551268332246315E-02
              -6.3596909189697600E-03
              -3.7635615212466070E-03
               1.6757835229944638E-02
               1.0147278414271812E-02
              -5.4240725505694462E-03
              -1.2401800636168496E-02
              -3.4884795788737506E-03
               3.3598664920645501E-03
              -2.4929609456319289E-03
               3.2278568405439607E-03
               1.0629298038285552E-02
              -4.6925305371524626E-03
               2.8158298681255615E-04
               4.6371276467418489E-03
              -8.6071196428657640E-03
              -2.3371674452343774E-03
               5.7373489428466339E-03
               1.4060150505437086E-03
              -2.6308647497298753E-04
               2.0550526600451438E-02
              -5.3309351684307539E-03
              -2.0389020673431291E-02
               8.0531478017023487E-03
               2.1616379091565618E-03
              -5.7752991665385080E-03
              -4.2865637554862319E-03
              -1.7552493921205129E-04
              -8.9391578229924620E-03
               2.0310535725796639E-02
              -2.9070661868007873E-03
              -5.3607521354080683E-03
              -2.5600238366187784E-03
               2.8944499651821357E-04
              -6.0408362914600904E-03
               7.4987142866246434E-03
               4.2711953345028761E-03
              -2.6898181224150931E-02
               1.4355282918238899E-02
               7.3772729994473632E-03
              -9.3138408820193155E-03
               5.5644036044034577E-03
               2.1343652924771153E-02
               1.5530809448732378E-04
               7.1813535127705644E-03
               6.8695904416321866E-03
              -3.3121039789402937E-03
               5.4935305965900976E-03
               2.5435531675379597E-03
               3.3400381612046838E-03
              -1.2788143587393970E-02
               4.6671040297309053E-03
              -5.5572320751515972E-03
              -1.0466122098982730E-03
               3.2078353123598403E-03
              -4.5610907560206561E-03
              -6.9344895918313574E-04
               8.4372462027709656E-03
              -4.9620771042177439E-04
              -3.7288960351113767E-03
               3.8621928969534182E-03
              -6.2109691822282462E-04
               1.3071734280565195E-04
               7.2898361020873022E-04
              -9.5805440314532791E-03
               5.5446601297803886E-03
              -7.4609608716134004E-03
               4.7036246374287339E-03
               7.7107138702273790E-03
              -1.0549334716763462E-02
              -3.7572807205164109E-03
              -6.5700461904823785E-03
               6.3431780160956505E-03
              -1.1790113127471811E-02
              -3.0161991548836891E-04
               1.1284065446037812E-02
              -6.6137906268986142E-03
               1.2218933771395045E-02
              -1.0023164747757333E-02
              -1.4447008349813740E-02
              -2.0300945117551717E-03
               4.8961089294204552E-03
              -1.0310730677187905E-02
              -8.5048398307659874E-03
               2.3966481856029661E-03
               6.7491689513075014E-03
               1.6292005239334221E-02
              -8.6936329267047075E-03
              -4.6563915232160236E-03
              -7.4112552033189635E-03
               2.8362946484313382E-03
               6.0137906024659727E-03
              -1.2333061496852262E-02
              -7.3787797304602091E-03
               2.2175068171212307E-02
               4.4186462995205065E-03
              -1.4748880694493011E-02
              -5.8399892447799275E-03
               2.8700286070485583E-03
              -2.1151654126858291E-03
               6.6773123445141242E-03
               2.8439080610710103E-04
              -2.9606247666785253E-04
               8.6646887948330972E-03
              -1.1487528178053487E-02
               1.1462588193228342E-03
              -3.1260194112851681E-03
               1.1662202175611378E-02
               1.8211511852753764E-03
               6.7499968978360012E-03
              -1.1851375798716177E-03
              -1.6188132005468944E-03
              -4.7527422631787530E-03
               8.4293843939165277E-03
               8.9447587250023695E-03
              -1.4188889213790040E-04
              -2.8238544813967642E-03
              -1.5193261885404686E-04
              -7.1925921708163414E-03
               8.1028461792663521E-03
               2.2171120918593524E-03
               9.1474744489631193E-03
              -7.1589145959569632E-03
              -1.4170460828127022E-03
              -3.3612859974430065E-03
              -2.8443593800966294E-03
              -4.6254095084306453E-03
              -8.4591042474812335E-04
              -2.5403535487940653E-03
               2.5328599416585586E-03
               8.1220414081227578E-03
               6.0991732709591000E-03
              -1.3012769845495174E-02
               3.1467318610758545E-03
               9.9980078658102223E-05
               1.8206607813232173E-03
               1.7343345616359256E-03
               6.4744055851947580E-03
               2.0428143797876302E-03
               1.5514079641724549E-03
              -1.1716600967699319E-02
              -7.9080521160425233E-03
               4.9662386628171592E-03
              -9.7374137760352954E-03
               1.6064637832042838E-03
               1.5036401536955718E-03
              -2.1418026087183305E-03
              -1.9325246175501184E-03
              -1.1247420816099356E-03
               8.7768897719671408E-03
              -2.4966356282647641E-03
              -2.6920423755010738E-03
               1.4718150064944680E-03
              -4.0062518202355754E-03
              -8.1724243107334036E-03
              -3.9742917229133251E-03
               6.7510813126689584E-03
               5.8088259738084333E-03
               3.7932224261456052E-04
              -1.0191140791455319E-02
              -1.2982703213694213E-02
               1.5127675366423806E-02
               3.5182551194026628E-03
               6.1985801678798233E-03
              -5.0172612369611515E-03
              -1.0392667575547795E-02
               7.2992085604848492E-03
              -2.1593484832292966E-03
              -1.3012188026957144E-02
              -3.2482346441805223E-03
              -8.4011253417045021E-03
               1.4136211677830842E-03
              -3.2704746029083753E-03
               1.3030250282120140E-02
               5.5424501730604358E-03
               1.3486479933008453E-03
              -7.2388083423159328E-03
              -1.9533220845932548E-04
              -2.6842679161165567E-04
               3.1559250279803372E-03
               1.1105239778985828E-03
               5.9255256363058700E-03
              -4.1075840378809779E-03
               9.4774051342347530E-03
               7.3186924929553240E-03
               1.2431652434938671E-03
              -2.7326969429659342E-03
               2.0231369377652822E-04
               1.5617745062027632E-03
              -4.8986159022911143E-04
               5.6158826524012285E-03
               1.3598683448886420E-02
              -1.1188753562007929E-02
              -1.2272177724912748E-02
              -3.1766462826919597E-03
               1.1181995863145826E-02
              -2.8098787566411699E-03
               2.5839641390850189E-03
              -2.0839762493681966E-04
              -8.3785124018753883E-03
               1.0975202477244875E-02
              -2.5445617034014268E-03
              -2.9876979606069196E-03
               1.0630371957954353E-02
               5.6668094031053252E-03
              -9.9347713718407962E-04
               7.1186513708435739E-03
              -5.0387876031041607E-03
              -1.0281949421837539E-02
               4.5327734091868905E-03
              -9.8616193663361934E-04
               1.3550217560086898E-03
               1.6146118047959527E-03
              -4.0981052910775374E-03
         &END THERMOSTAT_ENERGY
         &RNG_INIT
Wiener process for Thermostat # 1        1 F T T   1.3168796815230839E+00         253091221.0        1879348804.0        1941419816.0        1781949665.0        2664059217.0        3222965444.0             12345.0             12345.0             12345.0             12345.0             12345.0             12345.0             12345.0             12345.0             12345.0             12345.0             12345.0             12345.0
Wiener process for Thermostat # 2        1 F T T   1.0836082229034851E+00        2065562364.0        2791780499.0        3376256025.0        2272437090.0          28556202.0        1093648535.0        3692455944.0        1366884236.0        2968912127.0         335948734.0        4161675175.0         475798818.0        3692455944.0        1366884236.0        2968912127.0         335948734.0        4161675175.0         475798818.0
Wiener process for Thermostat # 3        1 F T T  -6.1789393667745862E-01        2532064638.0         370819499.0        1517330627.0        2715415613.0        2825307082.0         500940699.0        1015873554.0        1310354410.0        2249465273.0         994084013.0        2912484720.0        3876682925.0        1015873554.0        1310354410.0        2249465273.0         994084013.0        2912484720.0        3876682925.0
Wiener process for Thermostat # 4        1 F T T  -1.2294886384093420E+00        3336183887.0        2872232771.0        2236750950.0        1269186191.0        2024423191.0        1697159479.0        2338701263.0        1119171942.0        2570676563.0         317077452.0        3194180850.0         618832124.0        2338701263.0        1119171942.0        2570676563.0         317077452.0        3194180850.0         618832124.0
Wiener process for Thermostat # 5        1 F T T  -5.3812445590684677E-01          83417531.0        1554909841.0          10949448.0        1777786994.0         774496762.0        3437435958.0        1597262096.0        3906379055.0        3312112953.0        1016013135.0        4099474108.0         275305423.0        1597262096.0        3906379055.0        3312112953.0        1016013135.0        4099474108.0         275305423.0
Wiener process for Thermostat # 6        1 F T T  -5.2919841187462680E-01        1885480420.0        2096556473.0        1753103654.0         216363748.0         317407656.0         600942169.0          97147054.0        3131372450.0         829345164.0        3691032523.0        3006063034.0        4259826321.0          97147054.0        3131372450.0         829345164.0        3691032523.0        3006063034.0        4259826321.0
Wiener process for Thermostat # 7        1 F T T   3.6080576363662714E-01        2545801942.0        3621807660.0        2775617272.0        2988871404.0        1088375287.0        3337485535.0         796079799.0        2105258207.0         955365076.0        2923159030.0        4116632677.0        3067683584.0         796079799.0        2105258207.0         955365076.0        2923159030.0        4116632677.0        3067683584.0
Wiener process for Thermostat # 8        1 F T T  -4.6172178108712220E-01        1591112872.0        4168599795.0         876023510.0        2218546806.0        2137197718.0        1187030772.0        3281794178.0        2616230133.0        1457051261.0        2762791137.0        2480527362.0        2282316169.0        3281794178.0        2616230133.0        1457051261.0        2762791137.0        2480527362.0        2282316169.0
Wiener process for Thermostat # 9        1 F T T   1.1031360122833411E+00        4136085209.0        1896820948.0        1239023544.0        2102586543.0        2487320919.0        1484742537.0        3777646647.0        1837464056.0        4204654757.0         664239048.0        4190510072.0        2959195122.0        3777646647.0        1837464056.0        4204654757.0         664239048.0        4190510072.0        2959195122.0
Wiener process for Thermostat # 10       1 F T T   6.3955414543737688E-01        3959073505.0        4146290589.0        3971256072.0        3048905764.0          81718252.0        1945148291.0        4215590817.0        3862461878.0        1087200967.0        1544910132.0         936383720.0        1611370123.0        4215590817.0        3862461878.0        1087200967.0        1544910132.0         936383720.0        1611370123.0
Wiener process for Thermostat # 11       1 F T T  -1.5684621275531752E-01        1034733295.0        2428978719.0        3632761299.0        2576966700.0         444152844.0        2369664815.0        1683636369.0         362165168.0         814316280.0         869382050.0         980203903.0        2062101717.0        1683636369.0         362165168.0         814316280.0         869382050.0         980203903.0        2062101717.0
Wiener process for Thermostat # 12       1 F T T  -8.0744726982260137E-02        4101011231.0        2570939400.0        4228792777.0        3466230943.0        1078674140.0         382082594.0         272317999.0         166758548.0         310112982.0         201045826.0        1680231254.0         118290799.0         272317999.0         166758548.0         310112982.0         201045826.0        1680231254.0         118290799.0
Wiener process for Thermostat # 13       1 F T T  -6.7149659210642743E-01        4266754015.0        1536301502.0        3276490451.0        2963200124.0        1006352126.0        3307904378.0        2245755202.0        1652682525.0        2865544364.0         721509566.0         209733568.0         592362218.0        2245755202.0        1652682525.0        2865544364.0         721509566.0         209733568.0         592362218.0
Wiener process for Thermostat # 14       1 F T T  -1.3379593522239042E+00         329341896.0         926000263.0        3102640431.0         114893931.0        3476862622.0        1179584303.0        3003961408.0        3529909391.0          14538032.0        3603919910.0         566682685.0        1235016484.0        3003961408.0        3529909391.0          14538032.0        3603919910.0         566682685.0        1235016484.0