 # Version information for this restart file 
 # current date 2023-12-18 23:19:11.786
 # current working dir /scratch/mj3313/comp-lab-class-2023/Week12/Runs/Proton
 # Program compiled at                              Sat Dec 12 18:27:15 EST 2020
 # Program compiled on                                         cs001.nyu.cluster
 # Program compiled for                                                nyu-intel
 # Source code revision number                                       git:8c64c6e
 &GLOBAL
   PRINT_LEVEL  LOW
   PROJECT_NAME proton_aimd_1ns_every0.5fs
   RUN_TYPE  MD
   WALLTIME 21600
 &END GLOBAL
 &MOTION
   &GEO_OPT
     OPTIMIZER  BFGS
     MAX_ITER  100
     MAX_DR     3.0000000000000001E-03
     &BFGS
     &END BFGS
   &END GEO_OPT
   &MD
     ENSEMBLE  NVT
     STEPS  2000
     TIMESTEP     4.9999999999999994E-01
     STEP_START_VAL  1999
     TIME_START_VAL     9.9949999999998238E+02
     ECONS_START_VAL    -1.1027999833048332E+03
     TEMPERATURE     3.0000000000000000E+02
     &THERMOSTAT
       TYPE  GLE
       REGION  MASSIVE
       &GLE
         NDIM  5
         A_SCALE     1.0000000000000000E+00
         A_LIST     1.8595758612559999E+02    2.7263853498399998E-01    1.1526100454610001E+01   -3.6414578262600003E+01 \
             2.3173375816020001E+02
         A_LIST    -2.7809524712060002E-01    8.5951591808710006E-05    7.2189048017650004E-01   -1.9844539343859999E-01 \
             4.2409257583420001E-01
         A_LIST    -1.4825808131210000E+01   -7.2189048017650004E-01    1.3590902121280000E+00    5.1498896280349999E+00 \
            -9.9949268450990001E+00
         A_LIST    -1.0372189126880000E+01    1.9844539343859999E-01   -5.1498896280349999E+00    2.6661910891169999E+01 \
             1.1507715495310000E+01
         A_LIST     2.1801346360420001E+02   -4.2409257583420001E-01    9.9949268450990001E+00   -1.1507715495310000E+01 \
             3.0958394565589998E+02
         &THERMOSTAT_ENERGY
               7.5492988731401349E-04
               4.0323209296822711E-03
              -1.0446124145924210E-03
               1.9673406872487966E-03
              -1.0697274344093458E-02
              -8.5430562742417650E-04
              -7.0847719566201669E-03
              -5.9921574636529916E-04
               1.0907533488822379E-02
               2.4212362519773012E-03
               1.1068018949337429E-02
              -1.2974670450720842E-03
              -7.7425483491750588E-03
               1.2652078908040071E-03
               2.6768610263792564E-03
              -9.4492219666903951E-03
               8.9616778022257679E-03
              -7.9486153976407996E-03
              -5.0676629488781194E-04
               4.6294486118590491E-03
               7.3776472543725597E-04
               1.3069142918373989E-02
              -5.4046919514272335E-03
              -3.6571978162370155E-03
              -3.0848263655319300E-03
              -1.0148942831983209E-02
              -1.7925081507270593E-03
              -5.2248452734566901E-04
               5.9507864512361888E-04
               4.8340226740748241E-03
              -6.1431983803955405E-03
              -2.1620848876149575E-03
               8.4184186176731162E-03
              -3.5787097462303885E-03
              -1.9678226092375468E-03
               8.4287192522575233E-03
               3.2896445874722713E-03
              -6.5923093513331676E-03
               1.9806530485052271E-04
               2.6553722411028985E-03
               1.0199490152505077E-02
              -1.4012828675220246E-02
               5.0231261666804083E-03
               7.2758790038941687E-03
              -5.4075147836421501E-04
               3.8094000824677723E-03
              -7.5416685275129288E-03
              -3.5166744383515472E-04
               6.8788502440654846E-03
               4.4850479852233350E-03
              -1.3801853229923635E-03
               3.4853333813465426E-03
              -1.0810724201026214E-02
              -8.2727112147623124E-03
              -8.9635707517233647E-03
               6.8311293831134880E-03
               7.6102248869453664E-04
              -1.7578587199294257E-03
               4.8214176584509784E-03
               5.5471836739148864E-03
              -1.0480727765260658E-03
              -3.0959199669984149E-03
               1.6111709140864860E-02
              -2.4407063117933238E-03
               3.9683164925192740E-03
               4.7303524045034691E-03
              -4.3834436420277529E-03
               4.9193207658385397E-03
               5.3869384889686234E-03
              -3.4754147671831174E-03
              -1.2277897183210477E-02
              -5.0167755054782723E-03
              -7.7577715462750336E-04
               1.8761818596673425E-03
              -5.6272040420607232E-03
              -4.5315512624692937E-03
               8.5313286932755666E-03
              -9.3362722939445992E-03
               9.7507114815212955E-03
              -1.1294505127328340E-03
               4.5917082983555754E-03
              -4.9060633583383542E-03
               3.8494358147811409E-04
              -2.4814722544280510E-04
               1.3475553104613156E-02
              -4.9509417455679714E-03
               5.1857098769975086E-04
               2.7500155758688801E-03
              -2.0867651353937940E-04
              -5.5935613124989524E-03
               2.1041630521679805E-03
              -1.3101650279647985E-02
               4.5566459905426928E-03
              -4.7536932290793725E-03
              -3.1552669519685646E-03
               9.5140058167532907E-03
               1.0709107205284712E-02
              -4.8621561442375380E-05
               6.3379073503966885E-03
               4.7989763538467088E-03
              -5.4379818398176648E-03
              -1.7455702217080077E-03
               8.4714409561223846E-03
              -1.3877313332495596E-03
               4.0013892421897970E-03
               1.0207381792937160E-02
               7.0683942618181275E-03
              -4.4259155368980693E-03
               5.8091953848946644E-03
               1.3307234790019680E-04
               2.3606714707836655E-03
               4.0582863011458118E-03
               1.8013909341526590E-03
               1.1613110156074979E-02
               5.6687881099875374E-03
              -4.3475224981167626E-03
              -4.4973769945375018E-03
               8.0929355878912260E-03
              -4.1996445476810548E-03
              -6.2627983044119973E-03
              -2.1204022871023982E-03
               2.9245525154054631E-03
               6.3582682684862682E-03
               4.2275018505440144E-03
              -9.0436733159665154E-03
              -3.0877752788800979E-03
               3.7447956129464865E-03
              -4.8828125150685445E-03
               6.4593003936432815E-03
              -4.7873884423742241E-03
               2.7907454814667726E-03
               1.2149985318524032E-02
              -5.0304132553214637E-03
               2.5054728520681625E-03
              -4.8556137491034971E-03
               3.2774986781967633E-03
               1.3406161897703108E-03
              -8.0930581728957257E-03
               9.9961089241189867E-04
              -2.9290420136960406E-03
               6.4903634227970377E-03
               7.0758068000263416E-03
               4.2024073525188492E-03
              -5.8760774346638279E-03
              -6.1826653543118372E-03
              -1.5729227403082835E-03
               1.1139306841233923E-02
               3.1141105589532290E-03
              -2.2994045879582855E-03
               6.6472564610139907E-03
              -1.5374167518523293E-02
               7.0671926654847193E-03
              -1.4232449270922200E-03
              -1.2381395916117952E-03
               6.5067276072520251E-03
               2.4249628741029208E-03
               1.3690456093596764E-03
              -4.0541553245684488E-03
              -8.5881661682553276E-03
               6.7057970887635281E-03
               3.4222148463795773E-03
              -3.7130938695223155E-03
              -4.6330347829509752E-03
               2.0753030763196946E-03
               1.3615260105729700E-02
               6.4191541552455524E-03
               4.7432522807398349E-03
              -1.8231413387716028E-02
              -6.5064940909526352E-04
              -1.3600208573449050E-04
              -4.1498654514559559E-03
              -1.3867726429941981E-03
               1.3219619865519853E-03
              -4.7298527278863984E-03
              -6.6736540353488083E-03
              -2.6313200685058038E-03
               7.9506711887598804E-03
               4.6651348787044890E-03
              -4.0707134462284788E-03
               3.4943636558302195E-03
               1.2762619195163458E-03
               1.6902184989519016E-02
               3.1122341640787164E-02
              -6.9023496546591189E-03
              -3.6957596840660602E-04
              -1.3598066912484869E-03
               9.9830217083622923E-03
              -5.7582246893219649E-04
              -1.0277496338628090E-02
              -9.0245567905598953E-04
              -3.3703971064785194E-03
               5.0393694151625447E-04
               4.7567820845873356E-03
              -5.3060086059710139E-04
               9.6740553697098846E-04
               1.0176869489503484E-02
              -3.9428933973765633E-03
              -2.3630588498265402E-03
              -1.2038274990993273E-02
               2.1243229157057483E-03
               4.2796760292810546E-03
               5.5909597465869775E-03
               2.6645471220390045E-03
               6.7595259963924162E-03
              -8.2287130006594225E-03
              -1.0870061429362008E-02
               1.0603590083606900E-02
               6.1334535277695421E-03
              -9.0181712498586860E-03
               6.1574726312637121E-03
              -2.0518903612474749E-03
               2.4084734933091194E-04
               1.6966543919582052E-03
               9.3332165238842763E-03
              -1.3826890140849950E-03
               1.9713131664639378E-03
              -7.0623206920739125E-03
               8.5391944965472581E-03
              -4.3024863710403689E-03
               3.7962048655220161E-03
               1.1339453216471637E-03
              -2.2143525543417103E-03
              -1.5119947975061339E-02
               1.2043997339129555E-02
               1.0871968534178322E-02
              -5.2726909137396100E-03
              -6.0400579488848177E-03
               4.4811787837767414E-04
               2.7665631902701244E-03
               2.3372682412102510E-03
              -6.6573488777452363E-03
               3.5782082851947101E-03
               1.0786081282642173E-02
               1.2192812819773113E-03
              -2.8765494612043494E-03
              -2.6543650271408708E-03
              -5.3744317930273684E-03
               1.2842336643207101E-03
              -3.0854753958023656E-03
              -2.3036265973665443E-03
               7.9144839970471913E-03
               8.6912951826891936E-03
              -1.3273474799119992E-03
               1.6260447340267462E-03
              -4.3495495323076444E-03
              -3.2116545988343954E-04
               1.8790222240331559E-04
              -2.0017821792512594E-04
              -3.0380790881444188E-03
              -5.5555113070523540E-03
               1.4949969319146281E-02
              -3.7857408780164600E-03
              -1.0597334025824450E-02
              -4.7336219748457271E-03
               5.1470292866870101E-03
              -5.0150001815067380E-03
               1.3414708168564319E-03
               1.9073180979574519E-03
              -6.3010464026717278E-03
              -3.2929567600396064E-03
               6.9457317571243798E-03
               7.4281858494908912E-03
               6.2227352451204527E-03
              -6.6484615306304905E-03
               6.6004997379062328E-03
              -7.5913858520339243E-03
              -3.3265518370096205E-04
               5.9801011900917729E-03
              -2.1161842517213618E-03
               3.4749557446025043E-03
               9.0893521621048124E-03
              -1.3526771103515777E-02
               9.4120269378234495E-03
               8.6231291402881095E-03
               2.4113427602461567E-03
               8.8905639276760354E-04
              -1.8618389172955472E-02
               1.5127095064833299E-02
              -3.9215863177768850E-03
               4.8363795295832592E-03
              -1.8061765243187047E-02
              -6.5580498333069510E-03
              -3.3634901284650487E-03
              -3.1114420163676107E-04
              -3.9835113775150361E-03
              -4.4550855930297955E-03
              -1.5266849069558979E-03
              -4.3332665188887389E-03
               2.0232666793900851E-03
               2.6268091466429343E-03
               8.4402487223650419E-03
              -3.3843772239122308E-03
              -7.2101912442044556E-04
              -2.2502844826840732E-03
              -4.5035891111000238E-03
               8.5974565522775395E-03
              -1.8656031305811839E-03
               2.0903775750367552E-02
              -4.0256015469827084E-03
              -6.7467413641788543E-03
               1.5670884826964433E-03
              -2.8311580586306848E-03
               6.4119283927791355E-03
               1.4515225424535018E-02
               3.6333513685517273E-03
              -1.1420120384848624E-02
               6.1486587333767148E-03
               8.7030009944375330E-03
              -3.6765040965913158E-03
               1.1305870638160742E-02
               2.1776255989535281E-03
              -3.2683556657032526E-03
              -1.0210697341911852E-03
               1.9950174047683807E-03
              -2.1016927617339290E-03
              -2.5465019668043559E-04
              -4.1635787323492128E-03
              -4.3368518978809047E-04
              -1.5021791713245927E-02
              -3.6638376002501869E-03
               3.9312256153641719E-03
               1.0923058377987184E-03
               6.4728742684244649E-03
               3.5000364241063501E-03
              -7.3029287939581564E-03
               1.8009902273079734E-02
               1.2807314351267337E-03
               2.6396368987583437E-03
               2.3121007147613374E-04
               7.6601936948999146E-03
              -1.3239709683772919E-02
               3.6708555822203624E-03
               2.5833812818368308E-03
              -3.1962890060010488E-03
               5.0604959020300435E-03
              -2.9977679868132506E-03
               1.2110110009645951E-03
               1.5952588222545618E-03
               5.7552685163199200E-03
               1.0638005885195020E-03
              -6.0114709050872531E-03
              -3.2425427458387009E-03
               2.9908841644223573E-03
               1.7076167768876445E-02
              -6.6556254822026191E-03
               3.8723813512994572E-03
               7.2161108088780873E-03
              -1.3430226822791810E-02
               7.0045651833051652E-03
              -1.5734251810553960E-03
              -1.3227089423989110E-04
               4.9276089174820330E-03
              -9.5465610423923920E-03
               9.8264096028263786E-03
              -2.1785521721503138E-03
              -2.3136284874689188E-03
               6.7008948287390459E-03
              -3.5904064157921377E-03
              -1.5212664308970688E-02
               3.3331025919459117E-03
               5.0997862958389328E-04
              -7.7064601259456212E-03
               2.0220031365454024E-02
               1.9392503043605110E-03
              -1.5958957722424353E-03
              -3.5169257521754445E-03
               1.2867645637345331E-02
              -4.1216503651046984E-03
              -9.9589857994990434E-03
              -5.0805214633943604E-03
               7.5895996646476761E-03
               4.9792858659579607E-03
               2.9836139726392278E-03
              -6.8786568168584189E-03
               3.0642956569858844E-03
               3.7687620640364902E-03
              -1.4041781019414326E-02
              -1.4898710620617529E-02
               1.7937541749457643E-03
               8.3283531305704782E-03
               3.0490999611225912E-03
               3.7617997738777771E-03
              -1.9367657234047981E-03
              -2.4945029677178768E-03
              -6.2668044979451677E-03
              -1.0313454783645358E-02
               1.0646827759702824E-02
               1.1251858098367902E-02
               1.1947909725776825E-02
              -1.1415818812639200E-02
              -5.2137344681700525E-03
               7.3747179024337296E-03
               8.0152857072495463E-04
              -5.4597247565673036E-03
               1.1639664926355806E-02
              -8.8683920768944935E-04
               4.6134036517423678E-03
              -9.3144621556806948E-03
              -8.2599378082259052E-04
              -9.6618487512520367E-04
               2.0556617240327390E-03
               1.2033044039677725E-03
              -1.2190950147000000E-03
              -1.7212276636265761E-03
               4.5897934855792608E-03
              -9.7856791427124185E-03
              -3.7667286555819043E-04
               7.3141233992859312E-03
              -6.5014175668313854E-03
              -3.1996932487043796E-03
               2.2825040298087088E-03
               3.3835944301327704E-04
              -4.2783064249423764E-03
               1.1678000123259537E-03
               3.4936505208446665E-03
               3.7946771990352065E-03
               4.9840669984393153E-03
              -3.2295924387308416E-04
              -9.7982409033876556E-04
               1.0105239791470667E-03
              -2.3896837217094505E-03
               8.0946420071615292E-03
              -2.8945772430051379E-03
              -9.6937854121268152E-03
               9.0165313792270312E-03
              -3.7582097155932203E-03
              -2.5619905892188422E-03
              -6.0218674224385687E-03
              -1.1964143599858985E-03
              -4.0421339409720696E-04
              -1.3845233658427126E-03
              -7.2051481835655852E-03
              -1.9011837199242151E-02
               1.6257049694467354E-02
               1.4340733719768078E-02
               5.4903142614897314E-03
              -8.5761399489738335E-03
              -1.1068995154454198E-03
              -6.9865568365571262E-03
              -6.5523629675330094E-03
               4.4291579587389827E-03
               6.8386711502999823E-04
              -1.6286150303774496E-03
               8.0542972966250216E-03
               3.8523524468978133E-03
               9.5095326925550144E-03
               1.3212368758341621E-03
               1.4332886583307450E-02
               1.0458619020399093E-02
              -9.7602869266390797E-03
              -2.1057695220843562E-03
              -1.2326356214931099E-02
               1.0806182197072228E-02
               6.0550355806854913E-04
               1.6247984163770828E-03
              -3.9408859497462919E-03
              -1.4922976755427222E-02
              -2.0531648569842468E-02
               1.2923533439161732E-02
              -3.7990393274709507E-03
               1.7549758885853264E-02
               1.0055688136129250E-02
              -5.4537750070419843E-03
               7.2991730626708381E-03
               4.5421712338877557E-03
               2.1259200137732978E-04
              -1.4572525781516363E-02
               3.4076743444323935E-03
               8.6916299891434262E-03
              -3.4901199285187752E-03
              -1.8029992518811034E-03
              -4.8839543017932608E-03
               3.8867569251128135E-03
              -6.4220093491129345E-04
              -1.9649064062185863E-03
               5.5870876213335273E-03
              -3.7900768527050850E-05
               2.1779659727855058E-03
               2.6159481601835499E-03
              -2.3322587550743713E-03
              -8.6447415749259834E-04
              -2.8340532531636849E-03
               6.9171292232054682E-03
               4.8398732070271183E-03
              -3.7385535874993369E-03
              -3.0271252142495941E-03
              -8.3173320765594725E-03
               4.6819712291838863E-04
               8.6335879748789673E-03
               3.2025523294394072E-03
               7.6571306034704982E-03
               5.1151999965041049E-03
               1.8073392178253229E-02
              -8.6064274805459397E-03
              -5.8315032862184734E-03
              -5.0394733080112606E-03
               5.4434049410807357E-03
              -3.1958778374740742E-03
               4.6948219972882121E-03
               7.0139018583494916E-03
               4.9502467374935698E-03
               7.5599663517620149E-03
              -1.7728685459990855E-02
               1.2821507043763383E-02
               4.8103426117365638E-03
              -1.2001158796759039E-02
              -4.6358865858389109E-03
               7.2915629849050296E-03
               8.3355807426322599E-03
               2.4536577576506485E-03
              -3.2398304300451479E-03
               1.3492279213095143E-02
              -4.6026993814681019E-03
              -4.1024910840835836E-03
               3.1457967364151699E-03
              -1.7927622867073268E-02
              -4.0442037728189197E-03
               6.5977668812815977E-03
               1.2002510619636875E-03
               3.4437656969132932E-03
              -1.7564154333615533E-02
              -1.1732424880862924E-03
               1.3925529924165821E-02
              -3.0435330791332800E-03
               5.5685992436763662E-05
               4.1765706572725213E-04
              -2.2416392558146695E-03
              -2.2164534719554445E-03
               8.0432205222011974E-03
              -5.6230004243776098E-03
               5.7746114529367894E-03
               5.5049846831373098E-03
              -1.1420771459786769E-02
              -5.0431606005980362E-03
               3.0368305059873545E-04
              -1.5323454749944555E-03
              -1.2556995262365514E-03
              -6.3435018229347972E-03
              -5.7975714404114595E-03
               1.1271907086663979E-02
               6.9234565527027583E-03
              -1.6013337541288745E-03
              -2.2840925085641423E-03
               2.9592836785252951E-04
               6.7521055666142976E-03
              -1.0368519764790156E-02
               6.4445361156391066E-03
               3.5041108861729993E-04
               6.3379104557450064E-03
               1.3024969526086768E-03
              -6.4297856564504508E-03
              -7.2214309287699577E-03
              -2.5457280750602516E-03
              -4.3312987674148928E-03
               2.5275796604999432E-03
              -9.1501647993285154E-04
              -3.1828209535184372E-03
              -3.3554988729101354E-03
               1.2528867803134188E-02
              -9.8056180217061533E-04
              -2.1967061577330455E-03
               3.0774647628705634E-03
              -1.1872042444574492E-03
               5.7761441443217893E-03
              -6.2734849648626387E-03
              -7.2398484393978385E-03
               3.1695767907093156E-03
              -4.1338967939665103E-03
               1.1445357094717128E-03
               3.2659834331442029E-05
              -5.2753264481439537E-03
              -4.9357782481406869E-03
              -6.6069449437590570E-03
              -3.4484014993243967E-03
               2.4661518046423100E-03
               1.2552251688113240E-02
               1.4640879880983030E-02
               2.8139209819693033E-03
              -5.5931832479627526E-03
         &END THERMOSTAT_ENERGY
         &RNG_INIT
Wiener process for Thermostat # 1        1 F T T  -1.3877964172148927E+00        3819968671.0        1923139303.0        2505174482.0        1129753110.0        1102497896.0        2318485114.0             12345.0             12345.0             12345.0             12345.0             12345.0             12345.0             12345.0             12345.0             12345.0             12345.0             12345.0             12345.0
Wiener process for Thermostat # 2        1 F T T   5.9690975612399577E-01        1863048650.0        1167059563.0        4156553466.0        2659491592.0        2500563110.0        2967422577.0        3692455944.0        1366884236.0        2968912127.0         335948734.0        4161675175.0         475798818.0        3692455944.0        1366884236.0        2968912127.0         335948734.0        4161675175.0         475798818.0
Wiener process for Thermostat # 3        1 F T T  -1.9577134425325560E-01        2029679022.0        1992813296.0        1475024831.0        3744841000.0        4231717232.0        1872789393.0        1015873554.0        1310354410.0        2249465273.0         994084013.0        2912484720.0        3876682925.0        1015873554.0        1310354410.0        2249465273.0         994084013.0        2912484720.0        3876682925.0
Wiener process for Thermostat # 4        1 F T T  -5.5423907268054418E-01         972191078.0        3239779000.0        2283144792.0        4029872124.0        2868550739.0         388907277.0        2338701263.0        1119171942.0        2570676563.0         317077452.0        3194180850.0         618832124.0        2338701263.0        1119171942.0        2570676563.0         317077452.0        3194180850.0         618832124.0
Wiener process for Thermostat # 5        1 F T T  -3.6874052824979625E-01         246061856.0        2033992607.0        4208640487.0        3425480013.0        1713937449.0        3033523858.0        1597262096.0        3906379055.0        3312112953.0        1016013135.0        4099474108.0         275305423.0        1597262096.0        3906379055.0        3312112953.0        1016013135.0        4099474108.0         275305423.0
Wiener process for Thermostat # 6        1 F T T   5.7875332706651861E-01        4268450248.0        1240555256.0        2123119467.0         299173953.0        2368881629.0        2698044585.0          97147054.0        3131372450.0         829345164.0        3691032523.0        3006063034.0        4259826321.0          97147054.0        3131372450.0         829345164.0        3691032523.0        3006063034.0        4259826321.0
Wiener process for Thermostat # 7        1 F T T  -1.8983145396195047E+00        4260312323.0         705196258.0         937296972.0        1373994383.0        3179698350.0        3757299263.0         796079799.0        2105258207.0         955365076.0        2923159030.0        4116632677.0        3067683584.0         796079799.0        2105258207.0         955365076.0        2923159030.0        4116632677.0        3067683584.0
Wiener process for Thermostat # 8        1 F T T  -3.3116685260855833E-01        2351531572.0        3477839446.0        1021048571.0        1975906828.0        1893564842.0         777663015.0        3281794178.0        2616230133.0        1457051261.0        2762791137.0        2480527362.0        2282316169.0        3281794178.0        2616230133.0        1457051261.0        2762791137.0        2480527362.0        2282316169.0
Wiener process for Thermostat # 9        1 F T T   1.4386427466100791E+00        3265425123.0        2999969280.0        3048908474.0        1047403656.0         134736569.0        4209884843.0        3777646647.0        1837464056.0        4204654757.0         664239048.0        4190510072.0        2959195122.0        3777646647.0        1837464056.0        4204654757.0         664239048.0        4190510072.0        2959195122.0
Wiener process for Thermostat # 10       1 F T T  -2.3947144259907721E-01        2825100143.0        2025717467.0        3827127036.0        1422979577.0        1026966836.0        1481957392.0        4215590817.0        3862461878.0        1087200967.0        1544910132.0         936383720.0        1611370123.0        4215590817.0        3862461878.0        1087200967.0        1544910132.0         936383720.0        1611370123.0
Wiener process for Thermostat # 11       1 F T T   2.8146058156813852E-01        3161233422.0        2404453347.0        1673723662.0         906337025.0          73303549.0        1016746719.0        1683636369.0         362165168.0         814316280.0         869382050.0         980203903.0        2062101717.0        1683636369.0         362165168.0         814316280.0         869382050.0         980203903.0        2062101717.0
Wiener process for Thermostat # 12       1 F T T  -6.6211933450441895E-01         208754144.0        1983222026.0        1378772639.0         460703296.0         651350573.0        3898252829.0         272317999.0         166758548.0         310112982.0         201045826.0        1680231254.0         118290799.0         272317999.0         166758548.0         310112982.0         201045826.0        1680231254.0         118290799.0
Wiener process for Thermostat # 13       1 F T T   2.2418582236869027E-02         545702192.0         878923556.0         464381839.0        1267067492.0        3004786620.0        2258194530.0        2245755202.0        1652682525.0        2865544364.0         721509566.0         209733568.0         592362218.0        2245755202.0        1652682525.0        2865544364.0         721509566.0         209733568.0         592362218.0