 # Version information for this restart file 
 # current date 2023-12-18 23:19:24.027
 # current working dir /scratch/mj3313/comp-lab-class-2023/Week12/Runs/Proton
 # Program compiled at                              Sat Dec 12 18:27:15 EST 2020
 # Program compiled on                                         cs001.nyu.cluster
 # Program compiled for                                                nyu-intel
 # Source code revision number                                       git:8c64c6e
 &GLOBAL
   PRINT_LEVEL  LOW
   PROJECT_NAME proton_aimd_1ns_every0.5fs
   RUN_TYPE  MD
   WALLTIME 21600
 &END GLOBAL
 &MOTION
   &GEO_OPT
     OPTIMIZER  BFGS
     MAX_ITER  100
     MAX_DR     3.0000000000000001E-03
     &BFGS
     &END BFGS
   &END GEO_OPT
   &MD
     ENSEMBLE  NVT
     STEPS  2000
     TIMESTEP     4.9999999999999994E-01
     STEP_START_VAL  2000
     TIME_START_VAL     9.9999999999998226E+02
     ECONS_START_VAL    -1.1027999833048332E+03
     TEMPERATURE     3.0000000000000000E+02
     &THERMOSTAT
       TYPE  GLE
       REGION  MASSIVE
       &GLE
         NDIM  5
         A_SCALE     1.0000000000000000E+00
         A_LIST     1.8595758612559999E+02    2.7263853498399998E-01    1.1526100454610001E+01   -3.6414578262600003E+01 \
             2.3173375816020001E+02
         A_LIST    -2.7809524712060002E-01    8.5951591808710006E-05    7.2189048017650004E-01   -1.9844539343859999E-01 \
             4.2409257583420001E-01
         A_LIST    -1.4825808131210000E+01   -7.2189048017650004E-01    1.3590902121280000E+00    5.1498896280349999E+00 \
            -9.9949268450990001E+00
         A_LIST    -1.0372189126880000E+01    1.9844539343859999E-01   -5.1498896280349999E+00    2.6661910891169999E+01 \
             1.1507715495310000E+01
         A_LIST     2.1801346360420001E+02   -4.2409257583420001E-01    9.9949268450990001E+00   -1.1507715495310000E+01 \
             3.0958394565589998E+02
         &THERMOSTAT_ENERGY
              -3.0904636673656049E-04
               3.9517998774484244E-03
              -1.0396169163150463E-03
               2.2766193467953356E-03
              -1.0773057819355820E-02
              -8.6022297995164978E-04
              -6.8389504995852810E-03
              -3.6504737452568999E-04
               1.1024924198987082E-02
               2.4865876256827632E-03
               1.0729155119416602E-02
              -1.1947790572102248E-03
              -7.3661454113567084E-03
               9.3267819823841520E-04
               2.6775545173310642E-03
              -9.4160309110744786E-03
               8.8920788394570172E-03
              -7.9648057020596102E-03
              -4.2740555413698332E-04
               4.4991124747498119E-03
               5.7566890534558896E-04
               1.3050023567496422E-02
              -5.4648413371767854E-03
              -4.0025721936171182E-03
              -2.6264384004669487E-03
              -1.0460292470847943E-02
              -1.7974225856464295E-03
               6.7225301386520308E-04
               4.5120729346615623E-04
               4.7523567442749231E-03
              -6.1588934738176452E-03
              -1.7945025883963513E-03
               8.4149254005955187E-03
              -3.5929652265762066E-03
              -2.1214752574885381E-03
               9.0378722915472661E-03
               3.3004119339626508E-03
              -6.8874631411063409E-03
               3.3649744457439515E-04
               2.7409578576393185E-03
               1.0410642359532832E-02
              -1.4000415163756779E-02
               5.5565750926637025E-03
               6.9499402037617999E-03
              -7.0070856780279109E-04
               4.1127805773288487E-03
              -7.8446457439110048E-03
              -1.0626841700246033E-04
               7.1446629443699073E-03
               4.1706406624572945E-03
              -1.1388161946163100E-03
               3.7369302898374300E-03
              -1.0611812597139140E-02
              -8.3787183152657981E-03
              -9.0019511844336188E-03
               6.6989325951790782E-03
               1.8014142977026287E-04
              -1.8113790973192162E-03
               4.7982062909386657E-03
               5.5506668456408777E-03
              -1.1321637623111257E-03
              -3.0511176136677983E-03
               1.6001505194010397E-02
              -2.3986123857370942E-03
               4.1081140569677625E-03
               2.9165749232987321E-03
              -4.2325725915626361E-03
               4.7781621338954215E-03
               5.1973577115123435E-03
              -3.6378607726874541E-03
              -1.2230262374400879E-02
              -4.4839116709486006E-03
              -1.0034816610492215E-03
               1.8523759797654693E-03
              -5.5167836469587131E-03
              -6.3698982280444086E-03
               8.5379403751253847E-03
              -9.8694552809603427E-03
               9.2633980862530194E-03
              -1.1328305109637379E-03
               4.3364017973966671E-03
              -4.8638067335844372E-03
               1.8361407505477286E-04
              -5.2036187417990837E-04
               1.2817090266437963E-02
              -4.7197142993125425E-03
               5.0089976602965601E-04
               2.4765967177238076E-03
              -6.1222646574929178E-04
              -5.7131163801579657E-03
               2.7232212210961480E-03
              -1.3356854207143136E-02
               4.5254875238707991E-03
              -4.7724234448830076E-03
              -3.0852276265088802E-03
               9.2310469058552239E-03
               1.0756611779711040E-02
              -1.3352373897288422E-04
               6.6337565034090707E-03
               5.1866485032570379E-03
              -5.5435822180993381E-03
              -9.6607268419874768E-04
               8.5766358869917916E-03
              -1.6638957157521202E-03
               3.8618634233227836E-03
               1.0174995427625228E-02
               7.0921089942664979E-03
              -4.0230412962586858E-03
               5.5741098805997856E-03
              -2.2215598286938308E-04
               2.4865431043310316E-03
               4.1635301418964264E-03
               1.8004361587542752E-03
               1.1799782186522176E-02
               5.7026698372838755E-03
              -4.2699823717717404E-03
              -4.6328943228901220E-03
               7.6513376853619783E-03
              -4.0363607510787913E-03
              -6.2185381818182098E-03
              -1.9657864605367777E-03
               3.1311539497844393E-03
               6.3302786174046317E-03
               4.2861584634754021E-03
              -9.2831435416592632E-03
              -3.1335387824695774E-03
               3.9201281770660538E-03
              -4.7788871958477450E-03
               6.3817036503847485E-03
              -4.7249418130183565E-03
               4.1473289412845490E-03
               1.2130858386670539E-02
              -4.9520132329363186E-03
               2.4456551222185857E-03
              -4.9930890952711322E-03
               3.2955703021066898E-03
               1.1260295698419776E-03
              -7.9363718845827519E-03
               7.3873807528203545E-04
              -2.7830607879272594E-03
               6.3956475684487550E-03
               7.0736035427552326E-03
               4.1022795338171358E-03
              -5.5934595698648266E-03
              -5.7092189257719837E-03
               2.0556175884952244E-04
               1.1753681588470481E-02
               2.7405734891126272E-03
              -1.9791297749705557E-03
               6.8514568999199291E-03
              -1.5543223159046419E-02
               7.1394215574148538E-03
              -2.1753355265193967E-03
              -1.0998293669155414E-03
               6.4360360402020474E-03
               2.5219422722011849E-03
               6.8962408142515374E-04
              -4.3886062884116329E-03
              -8.3787162724645523E-03
               6.5761212723083988E-03
               4.0180119196657309E-03
              -3.8611027544517757E-03
              -4.2820397463776434E-03
               2.0794624725200459E-03
               1.1663783713163303E-02
               6.8229703794773656E-03
               3.7321036318536216E-03
              -1.8068834210701407E-02
              -7.8624054319138348E-04
              -2.1738689272370260E-04
              -3.9605647510653668E-03
              -1.3283405147804137E-03
               1.1874132654463359E-03
              -4.9131911052434649E-03
              -6.6372071503041355E-03
              -2.7634594046976190E-03
               7.9286981940058475E-03
               4.6819775031753524E-03
              -3.9054990422422134E-03
               3.5188153356381256E-03
               1.0911755179634343E-03
               1.6779150601789201E-02
               3.0977706526091095E-02
              -6.9055263419476216E-03
              -5.0516351056245699E-04
               6.3864223808191446E-04
               9.8029056959019513E-03
              -5.0248643007724716E-04
              -9.5083727671999019E-03
              -9.7543166604623544E-04
              -3.5401529762057560E-03
               5.6891386119763024E-04
               4.9529963112429215E-03
              -7.1693856144155186E-04
               1.5508562769224992E-03
               1.0408937166192045E-02
              -3.9009108499394179E-03
              -2.6531987878674686E-03
              -1.2047629951074321E-02
               1.9666490035454348E-03
               4.9010350883228887E-03
               4.8570667762938219E-03
               2.5717528249029659E-03
               6.2645726194397802E-03
              -8.2465155533835710E-03
              -1.0338325888249008E-02
               1.0569151282390745E-02
               6.3302544873090651E-03
              -8.6775959664141724E-03
               6.3311549947893857E-03
              -2.1451458705843943E-03
               2.8134794854014925E-04
               1.6175068883341080E-03
               9.4319434287745852E-03
              -1.2935148132853591E-03
               1.5719568759311152E-03
              -7.0781262077229783E-03
               8.7052692378142733E-03
              -4.7344256406222215E-03
               3.8105082731167612E-03
               9.7079770943643887E-04
              -1.9471613135931681E-03
              -1.4578673062025913E-02
               1.1656548679372231E-02
               1.0637729792814660E-02
              -5.2619982273355778E-03
              -6.1345854678889989E-03
               6.0721306492898103E-04
               2.7605165893615563E-03
               2.6183244204552054E-03
              -6.6736400949662881E-03
               3.7746352301748056E-03
               1.0597899666906446E-02
               1.0389077857371879E-03
              -3.8220238867462206E-03
              -2.5214979840655930E-03
              -5.3701910416911530E-03
               1.8084893271539521E-03
              -3.0806335806198323E-03
              -2.3487692162446230E-03
               7.9078208059968434E-03
               8.7478652422272787E-03
              -1.1451472378567005E-03
               2.0758039490459380E-03
              -4.3535228993286995E-03
              -1.2648072387945854E-03
               3.3508739919716672E-04
              -5.1971419552631314E-04
              -3.0095856492323813E-03
              -5.2810982606618590E-03
               1.4815423167333260E-02
              -3.8491472204464591E-03
              -1.0661197616157230E-02
              -4.6257391360154396E-03
               5.4630085610612774E-03
              -5.2014556850753617E-03
               1.7310544588841734E-03
               1.6197621132091429E-03
              -6.4854175084095890E-03
              -4.0557107697201918E-03
               6.7984367927433776E-03
               7.1205218740937673E-03
               6.5075066363516187E-03
              -7.1186920396104515E-03
               6.6242103681862768E-03
              -7.5527461745511374E-03
              -8.1198172562139373E-06
               5.9729043288895270E-03
              -2.5876825806871234E-03
               3.0537160705561102E-03
               9.1412808654657476E-03
              -1.3467008977695196E-02
               9.4023808379871173E-03
               8.6608906407157835E-03
               2.4013857429421902E-03
               8.9403924894258400E-04
              -1.8640061658458884E-02
               1.5160261705744440E-02
              -3.7103424269283288E-03
               4.9053356116078896E-03
              -1.8492320171744098E-02
              -7.0295557803328121E-03
              -3.2506833395806825E-03
              -4.0628519365879998E-04
              -4.0719598612522865E-03
              -4.6463430436891728E-03
              -2.1922155089373263E-03
              -4.3295330800120482E-03
               1.6073620116883198E-03
               2.1490826794014627E-03
               8.3832613682128000E-03
              -3.2014723966834547E-03
              -1.4191780823616814E-03
              -1.9195793205361638E-03
              -5.6192510341676258E-03
               8.8509128242930980E-03
              -1.5995159743954442E-03
               2.0941379893871338E-02
              -3.6537242801204244E-03
              -6.7643746508345530E-03
               1.3736166522986962E-03
              -2.7779871164725863E-03
               6.4460333059052095E-03
               1.4488717006943890E-02
               4.5226488542044595E-03
              -1.1178392542375232E-02
               6.1688236028704354E-03
               8.6892784458235551E-03
              -3.9056258501381229E-03
               1.1422819562295919E-02
               2.0698249662470742E-03
              -3.3091074107111373E-03
              -4.2675637332942578E-04
               2.1070193896927042E-03
              -2.8024237523604553E-03
              -8.0585986586779502E-04
              -4.2681192509652945E-03
              -4.9354411108948711E-05
              -1.4940716183169720E-02
              -3.3889320935586971E-03
               4.1163700197966759E-03
               1.5164135635461072E-03
               6.2005294708357157E-03
               3.5417686060852092E-03
              -6.9028365055864268E-03
               1.7620336793179057E-02
               1.2275974663357885E-03
               2.6702738235455351E-03
               1.1407956242265028E-04
               7.6530630624594602E-03
              -1.3429430519624024E-02
               3.7054391208565913E-03
               8.9208867568942680E-04
              -3.1587899754651990E-03
               5.0703464615605561E-03
              -3.0785863431683994E-03
               1.3561298166396762E-03
               9.7414369286505809E-04
               5.9004900821839242E-03
               7.6139295925408909E-04
              -6.8637695428573307E-03
              -3.0630014511494365E-03
               2.9761969644031164E-03
               1.7079496791888645E-02
              -6.6925883435584093E-03
               4.3017652281636598E-03
               7.1917740104694167E-03
              -1.3039171193195127E-02
               7.0156477156428122E-03
              -1.8092887975927922E-03
              -8.9210910712196704E-05
               4.8538642042567567E-03
              -1.0129157702265468E-02
               9.4374190451331219E-03
              -2.0658526165525043E-03
              -2.1990095477224031E-03
               6.7654865931861072E-03
              -3.6124329466051593E-03
              -1.5375934592434382E-02
               3.2828083459898959E-03
               2.4223178197361789E-04
              -7.6583036000568844E-03
               2.0321156990141309E-02
               1.4124373572475982E-03
              -1.6328351524967210E-03
              -3.3807318091337367E-03
               1.2765184020869663E-02
              -4.2577334579302099E-03
              -1.0026915322596563E-02
              -5.3544233715267639E-03
               7.6128961318321312E-03
               4.8935647393579928E-03
               3.0316279209014196E-03
              -6.7919021880869217E-03
               3.0518632590302384E-03
               4.0120990693491721E-03
              -1.4050506316000000E-02
              -1.4853133950548367E-02
               2.0825616505718786E-03
               8.3543899767666591E-03
               3.2230941211708747E-03
               4.0073976795051277E-03
              -2.2864943931749848E-03
              -2.7128964796442026E-03
              -6.5963913759622883E-03
              -1.0002443699970805E-02
               1.0818657364321381E-02
               1.1325885010200050E-02
               1.1891175331081106E-02
              -1.1138211992830801E-02
              -5.2445559268856296E-03
               7.4850603831417024E-03
               8.1386102398407322E-04
              -5.5337973177331141E-03
               1.1502110309479547E-02
              -9.3663189219288581E-04
               4.6623424055364489E-03
              -9.2537081105800965E-03
              -5.1740748998965161E-04
              -1.2111375082709047E-03
               2.0391822607740066E-03
               1.4902800059756118E-03
              -1.3526528612580783E-03
              -1.9423516780875019E-03
               6.0013268448596748E-03
              -9.8888737266383496E-03
              -1.2514128712448091E-03
               7.2377139085270025E-03
              -6.6184358435751652E-03
              -3.1799942225949002E-03
               2.6403774119444319E-03
               2.0414544387246659E-04
              -4.3417403461517732E-03
               3.5978972103890123E-04
               3.4428701454402464E-03
               3.6445658351979670E-03
               5.4160730540485577E-03
              -2.2244629077040613E-04
              -8.9592060070749051E-04
               8.0859678120989644E-04
              -2.5157353340732776E-03
               8.0847957834541580E-03
              -2.7846004227163367E-03
              -9.8523345015183623E-03
               8.4868416689997967E-03
              -4.2554413206554150E-03
              -2.4729846529440826E-03
              -6.2186789921400577E-03
              -1.1051673843275379E-03
              -5.2410789057043652E-04
              -1.3265690209028377E-03
              -7.2934513491765976E-03
              -1.8675983337986445E-02
               1.6260766703102100E-02
               1.4471078792481478E-02
               5.6899969202215328E-03
              -8.8992557011893132E-03
              -1.0001933074178203E-03
              -6.7225013478729220E-03
              -6.3606574864292550E-03
               4.8120089420280870E-03
               5.9549984286324685E-04
              -2.8172210401735368E-03
               8.1683639998967952E-03
               3.9841873550918597E-03
               9.4535015304454215E-03
               1.6803240319084971E-03
               1.4264292527145499E-02
               1.0381581453885590E-02
              -9.6923196591806940E-03
              -2.0181531218583923E-03
              -1.2352191413335751E-02
               1.0801168184793543E-02
               1.3378012289764053E-03
               1.3804139851310612E-03
              -3.8842393054643715E-03
              -1.4888796969300847E-02
              -2.0327040823087665E-02
               1.3030056521121575E-02
              -3.5973740135797566E-03
               1.7548363270311104E-02
               1.0162148689881814E-02
              -5.2458466579708429E-03
               7.7266829307202755E-03
               4.5192543248766285E-03
               2.0612067174345525E-04
              -1.4504731705775585E-02
               3.3114588025759382E-03
               8.9085773031746963E-03
              -3.8320423456724827E-03
              -1.7650557528664345E-03
              -4.8703536248720924E-03
               4.1024756095332324E-03
              -6.1353831624538920E-04
              -1.9444661478655999E-03
               5.6002095361905035E-03
              -4.1829449046803778E-05
               1.8009338178478745E-03
               2.9296485013878540E-03
              -2.3831187926623807E-03
              -8.4492928096394331E-04
              -2.7253437126415953E-03
               7.1539411613609494E-03
               4.9759806044519664E-03
              -4.1665571907021212E-03
              -3.3830527266827367E-03
              -8.2676152770269976E-03
               3.7404432455075901E-04
               1.0119907885721233E-02
               3.6136535250986847E-03
               7.7083181904861048E-03
               5.1313887087382571E-03
               1.7803567716215649E-02
              -8.5729987611150704E-03
              -5.8750062087315836E-03
              -4.9472123362151489E-03
               5.4377782194741800E-03
              -3.1677405443277474E-03
               4.7307905529807934E-03
               6.8821362940602315E-03
               4.9019408437339538E-03
               7.4344993144193966E-03
              -1.8001007966870472E-02
               1.2793883170909763E-02
               4.7193741894648840E-03
              -1.1933948569039522E-02
              -5.0890581768842109E-03
               7.2143297531397123E-03
               8.2677151754945270E-03
               2.5781598519651538E-03
              -3.1389016230442949E-03
               1.2755064719154430E-02
              -4.3056922132324498E-03
              -4.1827802175347017E-03
               3.2296031305590451E-03
              -1.8022326512005221E-02
              -3.2126407757740293E-03
               7.0656548461323120E-03
               6.9295192016608951E-04
               3.6558852899767633E-03
              -1.7547702844814470E-02
              -6.8037157943470566E-04
               1.3664137410901755E-02
              -3.0839549009466041E-03
               4.4630828349792232E-04
               7.3868126538479588E-04
              -2.3885686259707975E-03
              -1.6878148189451501E-03
               8.8995203753911116E-03
              -5.2802511415437148E-03
               6.1325509224578294E-03
               5.0387200900256102E-03
              -1.1692820979846294E-02
              -4.9638721472901413E-03
               9.2925165914135464E-04
              -1.5234561760569675E-03
              -1.5877439878430521E-03
              -6.2939543509389680E-03
              -5.7557791603912827E-03
               1.2206445046482703E-02
               6.6810631640089038E-03
              -1.8030082240265304E-03
              -1.9672635844699077E-03
               7.8031896136963896E-04
               7.0617905420351824E-03
              -1.0446811584443895E-02
               6.4581032197145059E-03
               3.1816946871224489E-05
               6.8449223836845093E-03
               1.0705006020673216E-03
              -6.6595770918765158E-03
              -7.5050557591750354E-03
              -3.0426884650127770E-03
              -4.2288683524908683E-03
               2.5268114596720651E-03
              -1.1225723957454799E-03
              -3.1103763520889346E-03
              -3.8477109163640062E-03
               1.2442771185736874E-02
              -8.7378044469636317E-04
              -2.0960262269778909E-03
               3.0648078132505378E-03
              -1.3274285090511691E-03
               5.4931072978253665E-03
              -7.1710336326246066E-03
              -8.1312131312168152E-03
               3.1708139902015399E-03
              -4.1453425769094757E-03
               9.1564441195011580E-04
               2.1829529539638430E-04
              -5.1155403829708660E-03
              -4.6179258425967061E-03
              -6.6193276739617592E-03
              -3.4497987701523972E-03
               2.5875648700386909E-03
               1.2557794659597070E-02
               1.4413575071327752E-02
               2.8709824556090741E-03
              -5.4944113785781040E-03
         &END THERMOSTAT_ENERGY
         &RNG_INIT
Wiener process for Thermostat # 1        1 F T T  -4.3866331554119464E-01        3463026290.0         996283881.0        3077134961.0        1575188103.0         352198642.0        1255594993.0             12345.0             12345.0             12345.0             12345.0             12345.0             12345.0             12345.0             12345.0             12345.0             12345.0             12345.0             12345.0
Wiener process for Thermostat # 2        1 F T T   6.1664168869435698E-01         581397078.0        3867423482.0         327967633.0        1486938113.0          26429212.0        4093174459.0        3692455944.0        1366884236.0        2968912127.0         335948734.0        4161675175.0         475798818.0        3692455944.0        1366884236.0        2968912127.0         335948734.0        4161675175.0         475798818.0
Wiener process for Thermostat # 3        1 F T T   2.0518696979926636E+00        1062843694.0        3278483557.0        2630284801.0         342499437.0         508306288.0         570022504.0        1015873554.0        1310354410.0        2249465273.0         994084013.0        2912484720.0        3876682925.0        1015873554.0        1310354410.0        2249465273.0         994084013.0        2912484720.0        3876682925.0
Wiener process for Thermostat # 4        1 F T T   8.6483655468840070E-01         858988242.0         878260951.0        1341305949.0        1687735708.0        1261279903.0        1615458589.0        2338701263.0        1119171942.0        2570676563.0         317077452.0        3194180850.0         618832124.0        2338701263.0        1119171942.0        2570676563.0         317077452.0        3194180850.0         618832124.0
Wiener process for Thermostat # 5        1 F T T  -7.2623034709222295E-02        3503246388.0        3640749438.0          80160185.0        4050541932.0        1809135917.0         826251710.0        1597262096.0        3906379055.0        3312112953.0        1016013135.0        4099474108.0         275305423.0        1597262096.0        3906379055.0        3312112953.0        1016013135.0        4099474108.0         275305423.0
Wiener process for Thermostat # 6        1 F T T   2.6094790259997280E+00        1648662560.0         298744963.0         276080774.0        3452610735.0        2129471280.0        4132861437.0          97147054.0        3131372450.0         829345164.0        3691032523.0        3006063034.0        4259826321.0          97147054.0        3131372450.0         829345164.0        3691032523.0        3006063034.0        4259826321.0
Wiener process for Thermostat # 7        1 F T T   1.3118545096244869E+00        4025695046.0        1027992126.0        3217973651.0        2155997853.0        1780084567.0        1907814450.0         796079799.0        2105258207.0         955365076.0        2923159030.0        4116632677.0        3067683584.0         796079799.0        2105258207.0         955365076.0        2923159030.0        4116632677.0        3067683584.0
Wiener process for Thermostat # 8        1 F T T   7.1524753302764935E-02        2631328646.0          66904958.0        3191287979.0        3452779318.0        2048731614.0        3759050068.0        3281794178.0        2616230133.0        1457051261.0        2762791137.0        2480527362.0        2282316169.0        3281794178.0        2616230133.0        1457051261.0        2762791137.0        2480527362.0        2282316169.0
Wiener process for Thermostat # 9        1 F T T  -1.0980465140389938E-01        1977246253.0        1903248984.0        3508262652.0        2466127224.0         300284070.0         767034957.0        3777646647.0        1837464056.0        4204654757.0         664239048.0        4190510072.0        2959195122.0        3777646647.0        1837464056.0        4204654757.0         664239048.0        4190510072.0        2959195122.0
Wiener process for Thermostat # 10       1 F T T   1.9081094228418396E+00         405211316.0        3215252316.0        3029076279.0        3899943421.0         886526099.0         586515832.0        4215590817.0        3862461878.0        1087200967.0        1544910132.0         936383720.0        1611370123.0        4215590817.0        3862461878.0        1087200967.0        1544910132.0         936383720.0        1611370123.0
Wiener process for Thermostat # 11       1 F T T  -5.3344054384789541E-01        3450000619.0        1059116059.0        3916567347.0         635813254.0        3901690603.0        3696418470.0        1683636369.0         362165168.0         814316280.0         869382050.0         980203903.0        2062101717.0        1683636369.0         362165168.0         814316280.0         869382050.0         980203903.0        2062101717.0
Wiener process for Thermostat # 12       1 F T T   8.9448207812820613E-01        1696219248.0        1783691089.0        1685873716.0        1285524479.0        2726140602.0        4269630803.0         272317999.0         166758548.0         310112982.0         201045826.0        1680231254.0         118290799.0         272317999.0         166758548.0         310112982.0         201045826.0        1680231254.0         118290799.0
Wiener process for Thermostat # 13       1 F T T  -1.0297203341400047E+00        4019568919.0        3484227797.0         947541978.0        4224885921.0        2127446270.0         502669027.0        2245755202.0        1652682525.0        2865544364.0         721509566.0         209733568.0         592362218.0        2245755202.0        1652682525.0        2865544364.0         721509566.0         209733568.0         592362218.0