 # Version information for this restart file 
 # current date 2023-12-18 23:18:54.957
 # current working dir /scratch/mj3313/comp-lab-class-2023/Week12/Runs/Proton
 # Program compiled at                              Sat Dec 12 18:27:15 EST 2020
 # Program compiled on                                         cs001.nyu.cluster
 # Program compiled for                                                nyu-intel
 # Source code revision number                                       git:8c64c6e
 &GLOBAL
   PRINT_LEVEL  LOW
   PROJECT_NAME proton_aimd_1ns_every0.5fs
   RUN_TYPE  MD
   WALLTIME 21600
 &END GLOBAL
 &MOTION
   &GEO_OPT
     OPTIMIZER  BFGS
     MAX_ITER  100
     MAX_DR     3.0000000000000001E-03
     &BFGS
     &END BFGS
   &END GEO_OPT
   &MD
     ENSEMBLE  NVT
     STEPS  2000
     TIMESTEP     4.9999999999999994E-01
     STEP_START_VAL  1997
     TIME_START_VAL     9.9849999999998249E+02
     ECONS_START_VAL    -1.1027999833048332E+03
     TEMPERATURE     3.0000000000000000E+02
     &THERMOSTAT
       TYPE  GLE
       REGION  MASSIVE
       &GLE
         NDIM  5
         A_SCALE     1.0000000000000000E+00
         A_LIST     1.8595758612559999E+02    2.7263853498399998E-01    1.1526100454610001E+01   -3.6414578262600003E+01 \
             2.3173375816020001E+02
         A_LIST    -2.7809524712060002E-01    8.5951591808710006E-05    7.2189048017650004E-01   -1.9844539343859999E-01 \
             4.2409257583420001E-01
         A_LIST    -1.4825808131210000E+01   -7.2189048017650004E-01    1.3590902121280000E+00    5.1498896280349999E+00 \
            -9.9949268450990001E+00
         A_LIST    -1.0372189126880000E+01    1.9844539343859999E-01   -5.1498896280349999E+00    2.6661910891169999E+01 \
             1.1507715495310000E+01
         A_LIST     2.1801346360420001E+02   -4.2409257583420001E-01    9.9949268450990001E+00   -1.1507715495310000E+01 \
             3.0958394565589998E+02
         &THERMOSTAT_ENERGY
               8.1108190554543698E-04
               3.8059942800658972E-03
              -1.0653243276324078E-03
               1.3570581541664105E-03
              -1.1198012555834792E-02
              -9.1240419189481592E-04
              -7.4890433472191865E-03
              -4.2192867577544213E-04
               1.0958977668305414E-02
               1.7349554117197438E-03
               1.1036890354559485E-02
              -1.5982643451632086E-03
              -6.8094230957578420E-03
               1.2731945624895678E-03
               2.4487465133066584E-03
              -9.7138672401329944E-03
               9.3747308861141833E-03
              -8.9630891810853625E-03
               2.4632592114426637E-04
               4.6060335270968226E-03
               4.7320593854788154E-04
               1.3207657385148829E-02
              -5.2731203211850560E-03
              -3.8048793154193072E-03
              -2.7504617429005311E-03
              -9.5252815460835239E-03
              -2.0231410827354413E-03
              -6.1197861165384736E-04
               1.1581454611695073E-03
               4.9491856142780547E-03
              -5.9666484983642940E-03
              -1.8649123512604266E-03
               8.4053053933359195E-03
              -3.7081624814144596E-03
              -1.9975062910498032E-03
               9.5472489260140514E-03
               3.2606716096495072E-03
              -6.9926239156333173E-03
               3.0462624818349395E-04
               1.7147479299356447E-03
               1.0335370842387125E-02
              -1.4251295355292661E-02
               6.3269563417752157E-03
               6.2262843035988374E-03
              -6.2829777117676794E-04
               4.3925599635573683E-03
              -7.2057809076667692E-03
              -4.8988892620926609E-05
               6.5489186389368938E-03
               3.9069793525496792E-03
              -1.8031577204700858E-03
               4.1556751954835991E-03
              -1.0850512244928867E-02
              -8.2945215096150680E-03
              -8.9725011946095341E-03
               6.7451866443364785E-03
               9.4982733123494310E-04
              -1.9848843763607964E-03
               4.8737015841599576E-03
               5.7510546963239016E-03
              -8.1650132132781231E-04
              -2.8860555720683708E-03
               1.5696671914709269E-02
              -2.4182283700768959E-03
               4.7933890796688647E-03
               5.4703738308333324E-03
              -3.5675794525354054E-03
               4.7789134088568035E-03
               5.6964967926276446E-03
              -3.7551854892838134E-03
              -1.2351472146939440E-02
              -4.8807966646800711E-03
              -8.6843261924291328E-04
               1.5377585276490117E-03
              -5.3443508497466631E-03
              -6.0136840548276737E-03
               8.3651553609295198E-03
              -8.8661216047401167E-03
               9.8255903754957009E-03
              -7.6406937081839100E-04
               4.9278862207452531E-03
              -4.8355045726823235E-03
               4.7784669509700223E-04
              -1.5669517607809572E-04
               1.3375041836592699E-02
              -4.9706357634233273E-03
              -4.0499659660327278E-05
               2.3877392980482166E-03
              -1.0034412164653262E-04
              -5.4774538734969815E-03
               1.6185725275536932E-03
              -1.2940913418364555E-02
               4.2644992038438018E-03
              -5.2392233959946575E-03
              -3.1660974722403151E-03
               9.8767854738431148E-03
               9.6963623472501991E-03
               1.9535388255546458E-04
               6.9795687498042693E-03
               4.8091517687872043E-03
              -5.4328894716613799E-03
              -1.1539460326926059E-03
               8.6634087039642489E-03
              -2.0041601286008900E-03
               3.0439318330826993E-03
               1.0214769841782824E-02
               7.1437439420048892E-03
              -4.4401831324062703E-03
               5.7329483006448596E-03
               1.2166792492070258E-04
               1.7218352306534641E-03
               4.6283550316117208E-03
               1.4729904872989958E-03
               1.1538436051823734E-02
               5.3878467209682339E-03
              -4.3748372198826168E-03
              -4.6147402232435400E-03
               8.2036416625652434E-03
              -4.0169231865934468E-03
              -6.2699262985610807E-03
              -2.8011439120139187E-03
               3.2323049607815768E-03
               6.2255488921546202E-03
               4.2282658651269182E-03
              -8.9500855650760276E-03
              -3.2002927137281486E-03
               3.8063658496281655E-03
              -4.7154109906372811E-03
               6.6878186914636007E-03
              -4.8244748522137323E-03
               2.8533283091730921E-03
               1.2250830706712264E-02
              -4.8119823454062464E-03
               1.0782700320040252E-03
              -4.6351348797113350E-03
               2.1816994854177577E-03
               3.5122428327539492E-04
              -9.5241757478325226E-03
               9.4757684309179646E-04
              -3.4198709194513469E-03
               6.4957304153240294E-03
               7.1012998180322463E-03
               4.6288735390647437E-03
              -5.6804067153854469E-03
              -5.6475867970636256E-03
              -4.1957327201699418E-04
               1.1173282360385001E-02
               3.0226840069312358E-03
              -2.0179663042412788E-03
               6.2089839816212447E-03
              -1.5504626698291862E-02
               6.7347699990666201E-03
              -2.7919444521343831E-03
              -2.1536497310915533E-03
               6.1752898543986218E-03
               2.1747469975237706E-03
               4.3727090699666280E-05
              -3.5765343076171055E-03
              -8.8328406391935989E-03
               6.5613002766149436E-03
               4.1560871668367798E-03
              -3.8218002954630210E-03
              -4.2667317375760473E-03
               2.0703767900741125E-03
               1.3124796934805264E-02
               6.9533842504221986E-03
               4.9854156952472460E-03
              -1.7978630704616846E-02
              -3.8904508527916098E-04
              -1.3956485623452640E-04
              -4.6225849389724353E-03
              -1.2938769089909199E-03
               2.5277921145665664E-03
              -4.8576100866218270E-03
              -6.7728227302403634E-03
              -2.4485106809541022E-03
               7.8180715193228133E-03
               5.1977225534588015E-03
              -4.4558970455106234E-03
               3.8153562990813077E-03
               1.0195382805356647E-03
               1.6877986915928185E-02
               3.1223865383113666E-02
              -7.0327321062882099E-03
              -1.7235162579992827E-04
              -1.7172387873771930E-03
               1.0408779013254103E-02
               2.3795112511024175E-04
              -9.3930315131260274E-03
              -1.2271550938614711E-03
              -3.2372743358259110E-03
               5.2442924272383428E-04
               4.1306851725028109E-03
              -4.2941024286874342E-04
               5.0933918945806505E-04
               1.0236526395443323E-02
              -4.0107355066257453E-03
              -1.9725414809906973E-03
              -1.1900166443356761E-02
               1.9549665733665576E-03
               3.5459079727084503E-03
               5.4199167344573486E-03
               2.7098592826254077E-03
               6.6591512491589733E-03
              -9.1088304900565163E-03
              -1.0078591994101757E-02
               1.0558497794295893E-02
               5.9399110676990356E-03
              -8.3879507572129936E-03
               5.6788542858692247E-03
              -2.2115036208617059E-03
              -1.5048892490524663E-05
               1.6876464581845317E-03
               9.5300244795979549E-03
              -1.3536342209371987E-03
               2.1325525199582208E-03
              -6.5712330390740349E-03
               8.6792785407997352E-03
              -4.3595345968071263E-03
               3.8208827691119467E-03
               1.3224044014164724E-03
              -3.4572871119068591E-03
              -1.7439784056455750E-02
               1.2272232870426598E-02
               9.5223208718158373E-03
              -5.2640828055471323E-03
              -6.2154960534333923E-03
               7.0782837020957748E-04
               2.7388697288072235E-03
               2.6158459034847830E-03
              -6.3848803719050804E-03
               3.1963120800343574E-03
               1.0951008125558768E-02
               1.4496799562022152E-03
              -2.1243285204100878E-03
              -2.6043026059652569E-03
              -5.5810380367936167E-03
               1.2965161060713914E-03
              -3.4389581878377022E-03
              -2.3989502909483400E-03
               7.7079305095208500E-03
               8.9782738620307039E-03
              -1.1550901629728430E-03
               1.6198889517807509E-03
              -5.2869451786897170E-03
              -1.7068713262977854E-03
               9.6346347698585035E-04
               9.4308530344043519E-04
              -3.0051687982854710E-03
              -5.8236430988487424E-03
               1.4970992227263136E-02
              -3.5912996110208481E-03
              -1.0724360385459632E-02
              -4.5354516354566537E-03
               4.1526620203718202E-03
              -5.0001703836813367E-03
               1.5927381731816437E-03
               2.0186369516149599E-03
              -6.3509353770461767E-03
              -2.7245696006195264E-03
               7.0382731037881840E-03
               6.9230378080572235E-03
               5.4408161774663743E-03
              -6.3799254144503229E-03
               6.8444615724574795E-03
              -8.2231540210138346E-03
              -6.8348144209265122E-04
               5.5639170549995507E-03
              -1.9105258246622696E-03
               2.8424133795390931E-03
               9.1626505584711335E-03
              -1.3854117454667093E-02
               9.4934073639602809E-03
               8.4091798946222159E-03
               1.8670605030914988E-03
               1.0687267986526378E-03
              -1.8737872495442523E-02
               1.5183618710892291E-02
              -3.3912341111979154E-03
               5.2813069318281784E-03
              -1.7797105412230188E-02
              -6.4451915047577402E-03
              -3.2203775581892830E-03
              -6.3702927921766516E-04
              -3.9200584630952337E-03
              -4.4634945531078895E-03
              -2.8239342490055455E-04
              -4.2651355764521401E-03
               2.0264938717482598E-03
               2.6261407341931159E-03
               6.7405905349865614E-03
              -3.2964731280472033E-03
              -7.7090838471118180E-04
              -3.4466334456576225E-03
              -4.6374961005345838E-03
               9.0072958962470490E-03
              -1.8521337852843989E-03
               2.1378691304389831E-02
              -3.8980774215524104E-03
              -6.8590829858659426E-03
               1.1958759972423398E-03
              -2.9656972014271113E-03
               6.3699788472631382E-03
               1.4579414539123797E-02
               4.3966303191175417E-03
              -1.1124720862863017E-02
               5.7436204450412405E-03
               8.7171971955634885E-03
              -4.0786479519013541E-03
               1.1560336512176734E-02
               2.3511026043513037E-03
              -3.1600786188297030E-03
              -1.8297362292358788E-03
               2.0694265567778279E-03
              -1.4111910756632157E-03
               2.3100676102419832E-04
              -4.4139697370310250E-03
               2.3507168134584647E-04
              -1.5962422840728768E-02
              -3.2758431761999089E-03
               3.9110463992905083E-03
               2.5736850642934083E-03
               7.0881391970437939E-03
               3.6440108415191266E-03
              -6.4946043741716660E-03
               1.8558017327651669E-02
               9.3061480350999375E-04
               2.6150998337857926E-03
              -1.8412070444721277E-04
               7.3634364798579790E-03
              -1.5138264316975628E-02
               2.6297920553703634E-03
               2.5495636622230172E-03
              -3.1043801575347638E-03
               5.0005851204588895E-03
              -2.9608603719402300E-03
               1.2914703841502989E-03
               1.5796382536507018E-03
               5.4432685858484655E-03
               1.4406591676818430E-03
              -5.4832219394404620E-03
              -2.6836238685262336E-03
               2.8400367943092050E-03
               1.6988150432640632E-02
              -6.6738885672120865E-03
               3.7586835873665483E-03
               6.5398276844490138E-03
              -1.3593055909196119E-02
               6.6405809863882012E-03
              -1.9636827498632054E-03
               9.5197122330912981E-05
               4.9600657584162227E-03
              -9.3071448991830872E-03
               8.9995394032725256E-03
              -2.3617058193133567E-03
              -2.2076705871680660E-03
               6.9629714566294583E-03
              -3.5812785269678979E-03
              -1.5153657775617143E-02
               2.9674211897320604E-03
               5.5791531716005253E-04
              -8.4018261794140819E-03
               2.0051359786891269E-02
               1.6879441111828238E-03
              -1.6145237206646101E-03
              -3.1735087843100607E-03
               1.2818694580639457E-02
              -4.2678419167499291E-03
              -1.0448916631149413E-02
              -5.2585950584590480E-03
               7.7001942691443809E-03
               5.2842617473507552E-03
               2.5950269102475850E-03
              -6.3518229446734601E-03
               3.0434732272627872E-03
               2.0573250016803855E-03
              -1.4063756448382290E-02
              -1.4912194743682083E-02
               1.7080363618707860E-03
               8.2717820431977649E-03
               3.2816365203539449E-03
               4.0923930271928883E-03
              -1.5691345417319044E-03
              -2.6731914791818271E-03
              -5.9483082589275853E-03
              -9.7052893314865125E-03
               1.0198596242586896E-02
               1.1211634703154996E-02
               1.2098248899671671E-02
              -1.1237512785359040E-02
              -5.3088623529885465E-03
               7.2923216140755830E-03
               1.0234029245656127E-03
              -5.5133597901851879E-03
               1.1523442379209043E-02
              -8.0390064694262824E-04
               4.0622540906791807E-03
              -9.2260992069508017E-03
              -2.3682946420496343E-03
              -1.0347341445458044E-03
               2.0052228072484279E-03
               1.0651134054467850E-03
              -1.0746528292621231E-03
              -1.7595096444617550E-03
               4.6864259384885136E-03
              -9.8338630308355528E-03
              -1.7099994144534141E-04
               7.5235205681944651E-03
              -6.4204899732232586E-03
              -3.2288464633214854E-03
               2.2372332093961236E-03
              -3.4055441995624086E-04
              -4.4799426736718793E-03
               5.2289854227264361E-04
               3.0167139115775243E-03
               3.2790297065293387E-03
               5.5563444417536193E-03
              -3.5453350939998511E-04
              -9.3793427197925885E-04
               9.0039897679999707E-04
              -2.7403624333613278E-03
               8.2562966645192779E-03
              -2.9359886242651487E-03
              -9.9579166820467895E-03
               7.9622510248903624E-03
              -3.3630534747314685E-03
              -2.2475221664474856E-03
              -5.9054804657614418E-03
               8.3906822731945297E-04
              -1.4031298055440335E-03
              -1.5135403699464954E-03
              -7.2551951085428647E-03
              -1.9064769821131696E-02
               1.6323375976510113E-02
               1.4426339717816448E-02
               4.1283631103586757E-03
              -8.8372377821248418E-03
              -1.7855505997664888E-03
              -6.9406102581396267E-03
              -6.6421020875321755E-03
               3.1004757967740305E-03
               1.5050728066342296E-03
              -1.9681685415560168E-03
               7.0494251305716375E-03
               3.4365691136565985E-03
               9.5187473429513576E-03
               2.0298141271385441E-03
               1.4348571507664054E-02
               1.0764475833790281E-02
              -9.6847606502973443E-03
              -1.9321113493833975E-03
              -1.2364198005298900E-02
               1.0972528406577481E-02
               1.9804404767239118E-04
               2.3084134128707923E-03
              -3.8657275361562576E-03
              -1.4931149439387366E-02
              -2.0751624163544043E-02
               1.3077754243782335E-02
              -3.5724372566008590E-03
               1.7114029611182965E-02
               9.6442949245720954E-03
              -5.3869512955633855E-03
               6.4807268635393746E-03
               4.9907267010131226E-03
              -6.9125179502733947E-04
              -1.4458682540266632E-02
               3.1669092421906710E-03
               8.7187017493922589E-03
              -3.6618086480960104E-03
              -2.1952981495593077E-03
              -4.9535468044794731E-03
               4.2817210533711040E-03
              -4.1820130923618423E-04
              -2.1269434111163520E-03
               4.9093627068621283E-03
              -2.7880998910554056E-05
               2.1995733057051134E-03
               2.3616118268890095E-03
              -2.4801891235545523E-03
              -1.1217947965383680E-03
              -3.5100294075050124E-03
               8.3857257513692551E-03
               4.7886721107190389E-03
              -1.9788587887601744E-03
              -3.0614258135943516E-03
              -8.3303746168336742E-03
               1.2203874074220121E-04
               9.9138418140877795E-03
               3.1767312714786338E-03
               7.8151349649821390E-03
               4.9722242618268240E-03
               1.8125950458795739E-02
              -8.6146838667911473E-03
              -5.8512679859191296E-03
              -5.1071462485287669E-03
               4.6319727179479553E-03
              -3.9996149361032855E-03
               4.6104448730603662E-03
               6.9828323096028499E-03
               3.0793620533047439E-03
               7.4864142991295001E-03
              -1.8044197272531166E-02
               1.2695702400981874E-02
               4.8419813415144534E-03
              -1.2083438457188985E-02
              -4.9150473167277522E-03
               7.3698949519013382E-03
               8.2673404322128295E-03
               2.5978662070368819E-03
              -3.4044043861181745E-03
               1.2924739842380245E-02
              -4.3817485256079074E-03
              -4.1423815685777531E-03
               3.2053260195164103E-03
              -1.7844945315496741E-02
              -3.6478041100195765E-03
               6.0562976571618653E-03
               1.2955541113904290E-03
               3.7795917002914343E-03
              -1.7610055645011936E-02
              -1.2725836338344486E-03
               1.3542588438611565E-02
              -3.0414384376916039E-03
               4.4076121247398547E-04
               7.1099979708189845E-04
              -2.3182318001418864E-03
              -1.4812364872578883E-03
               7.2834574335766209E-03
              -6.0244337489668790E-03
               5.4146167415364934E-03
               5.2632505148959823E-03
              -1.1223830116559908E-02
              -5.1475037831052416E-03
               2.6430556455013716E-04
              -1.5626757433512806E-03
              -1.5118376244254029E-03
              -6.1636657708884759E-03
              -5.7130220044102481E-03
               1.2411900368532429E-02
               6.8135031813081337E-03
              -1.6592014986479911E-03
              -2.3333463302226717E-03
               3.9275926137423162E-04
               7.0330593726500605E-03
              -1.0492228808083023E-02
               7.2523413079079550E-03
              -2.3947926972411597E-04
               5.8888336949936412E-03
               1.2687832796522552E-03
              -4.9373148303927762E-03
              -6.7009006284188318E-03
              -2.4963398214494855E-03
              -4.9156631170666557E-03
               2.4886033352080157E-03
              -8.5023343363648017E-04
              -3.1499671400433324E-03
              -3.6713289283769029E-03
               1.2522179539394211E-02
              -8.8304540191962535E-04
              -2.0873668262558838E-03
               2.9871083655087049E-03
              -1.1035962628641303E-03
               5.7311015980801433E-03
              -5.6341351976548545E-03
              -7.3381425400876497E-03
               3.4782671354075720E-03
              -4.3640166715215849E-03
               1.1901569665254299E-03
               1.0168727175354727E-03
              -5.1068955490618630E-03
              -4.6494424412910377E-03
              -7.5353490051013293E-03
              -3.5553948397909333E-03
               2.1611735497325240E-03
               1.2038601673731466E-02
               1.4654762076875954E-02
               3.0002965691367516E-03
              -5.4606627117414867E-03
         &END THERMOSTAT_ENERGY
         &RNG_INIT
Wiener process for Thermostat # 1        1 F T T   3.7280401166127353E-01        2396824340.0        1285798124.0        1970812289.0        4262378425.0        2500496477.0        3105761546.0             12345.0             12345.0             12345.0             12345.0             12345.0             12345.0             12345.0             12345.0             12345.0             12345.0             12345.0             12345.0
Wiener process for Thermostat # 2        1 F T T  -2.8031459711754392E-01        1517340215.0         764337745.0        1777988352.0        1272471177.0        3093987526.0        2495380513.0        3692455944.0        1366884236.0        2968912127.0         335948734.0        4161675175.0         475798818.0        3692455944.0        1366884236.0        2968912127.0         335948734.0        4161675175.0         475798818.0
Wiener process for Thermostat # 3        1 F T T   7.0414863813957229E-01        1874984675.0        3540139467.0        3102430019.0        1608426380.0         643336117.0        1230365417.0        1015873554.0        1310354410.0        2249465273.0         994084013.0        2912484720.0        3876682925.0        1015873554.0        1310354410.0        2249465273.0         994084013.0        2912484720.0        3876682925.0
Wiener process for Thermostat # 4        1 F T T   2.2606224243119818E-01        3416187057.0        1637601412.0         393440280.0        2948182120.0        3407482107.0        2343296956.0        2338701263.0        1119171942.0        2570676563.0         317077452.0        3194180850.0         618832124.0        2338701263.0        1119171942.0        2570676563.0         317077452.0        3194180850.0         618832124.0
Wiener process for Thermostat # 5        1 F T T  -1.0267294306732384E+00         315072143.0        4137263975.0        4196656129.0        1282237791.0        3639735469.0        1937530485.0        1597262096.0        3906379055.0        3312112953.0        1016013135.0        4099474108.0         275305423.0        1597262096.0        3906379055.0        3312112953.0        1016013135.0        4099474108.0         275305423.0
Wiener process for Thermostat # 6        1 F T T   9.2624835653208748E-01        3222219212.0        3105331301.0        2094058484.0        2511776071.0        3719186732.0        3505559269.0          97147054.0        3131372450.0         829345164.0        3691032523.0        3006063034.0        4259826321.0          97147054.0        3131372450.0         829345164.0        3691032523.0        3006063034.0        4259826321.0
Wiener process for Thermostat # 7        1 F T T  -4.6721006089689310E-01        2921304001.0        3534845789.0         764942181.0        2980414860.0        2807768180.0         274774080.0         796079799.0        2105258207.0         955365076.0        2923159030.0        4116632677.0        3067683584.0         796079799.0        2105258207.0         955365076.0        2923159030.0        4116632677.0        3067683584.0
Wiener process for Thermostat # 8        1 F T T   4.8809173354813140E-01        3327178806.0        3682317356.0        2663069382.0         319044460.0        3975670735.0         562702070.0        3281794178.0        2616230133.0        1457051261.0        2762791137.0        2480527362.0        2282316169.0        3281794178.0        2616230133.0        1457051261.0        2762791137.0        2480527362.0        2282316169.0
Wiener process for Thermostat # 9        1 F T T  -8.1805399140306756E-01         433221438.0         349071730.0        2033385903.0        2639944804.0        3988392127.0        3801627598.0        3777646647.0        1837464056.0        4204654757.0         664239048.0        4190510072.0        2959195122.0        3777646647.0        1837464056.0        4204654757.0         664239048.0        4190510072.0        2959195122.0
Wiener process for Thermostat # 10       1 F T T  -2.7062828385550008E-01        2290601073.0        1666814614.0        3289919364.0        2930088785.0        1500929831.0        1860303943.0        4215590817.0        3862461878.0        1087200967.0        1544910132.0         936383720.0        1611370123.0        4215590817.0        3862461878.0        1087200967.0        1544910132.0         936383720.0        1611370123.0
Wiener process for Thermostat # 11       1 F T T   6.8652417552969780E-01        2151060734.0         580174056.0        1748210725.0         399674445.0        1879492130.0        2741776977.0        1683636369.0         362165168.0         814316280.0         869382050.0         980203903.0        2062101717.0        1683636369.0         362165168.0         814316280.0         869382050.0         980203903.0        2062101717.0
Wiener process for Thermostat # 12       1 F T T   1.2985463821691814E+00        3478492904.0        1830493925.0          17364685.0        2058676739.0        2676153401.0        4087350495.0         272317999.0         166758548.0         310112982.0         201045826.0        1680231254.0         118290799.0         272317999.0         166758548.0         310112982.0         201045826.0        1680231254.0         118290799.0
Wiener process for Thermostat # 13       1 F T T   2.0061703114922356E+00        2097018817.0        1300727704.0         367347443.0         582130443.0        2824054692.0        3111690587.0        2245755202.0        1652682525.0        2865544364.0         721509566.0         209733568.0         592362218.0        2245755202.0        1652682525.0        2865544364.0         721509566.0         209733568.0         592362218.0