 # Version information for this restart file 
 # current date 2023-12-18 20:50:51.425
 # current working dir /scratch/mj3313/comp-lab-class-2023/Week12/Runs/Proton
 # Program compiled at                              Sat Dec 12 18:27:15 EST 2020
 # Program compiled on                                         cs001.nyu.cluster
 # Program compiled for                                                nyu-intel
 # Source code revision number                                       git:8c64c6e
 &GLOBAL
   PRINT_LEVEL  LOW
   PROJECT_NAME proton_aimd_1ns_every0.5fs
   RUN_TYPE  MD
   WALLTIME 21600
 &END GLOBAL
 &MOTION
   &GEO_OPT
     OPTIMIZER  BFGS
     MAX_ITER  100
     MAX_DR     3.0000000000000001E-03
     &BFGS
     &END BFGS
   &END GEO_OPT
   &MD
     ENSEMBLE  NVT
     STEPS  2000
     TIMESTEP     4.9999999999999994E-01
     STEP_START_VAL  1000
     TIME_START_VAL     4.9999999999999636E+02
     ECONS_START_VAL    -1.1027999833048332E+03
     TEMPERATURE     3.0000000000000000E+02
     &THERMOSTAT
       TYPE  GLE
       REGION  MASSIVE
       &GLE
         NDIM  5
         A_SCALE     1.0000000000000000E+00
         A_LIST     1.8595758612559999E+02    2.7263853498399998E-01    1.1526100454610001E+01   -3.6414578262600003E+01 \
             2.3173375816020001E+02
         A_LIST    -2.7809524712060002E-01    8.5951591808710006E-05    7.2189048017650004E-01   -1.9844539343859999E-01 \
             4.2409257583420001E-01
         A_LIST    -1.4825808131210000E+01   -7.2189048017650004E-01    1.3590902121280000E+00    5.1498896280349999E+00 \
            -9.9949268450990001E+00
         A_LIST    -1.0372189126880000E+01    1.9844539343859999E-01   -5.1498896280349999E+00    2.6661910891169999E+01 \
             1.1507715495310000E+01
         A_LIST     2.1801346360420001E+02   -4.2409257583420001E-01    9.9949268450990001E+00   -1.1507715495310000E+01 \
             3.0958394565589998E+02
         &THERMOSTAT_ENERGY
              -2.2525374008155623E-04
              -1.8978585878120710E-04
              -6.3884332919976678E-04
               4.4653819012218880E-03
              -1.0553131043182021E-02
              -7.6561911456902792E-04
              -2.4520110803209665E-03
              -8.6137379144157029E-04
               5.4313578339816046E-03
               4.4333031913870707E-03
               1.1181317669281415E-02
              -2.3395378659651950E-03
              -1.1328212793641898E-03
              -3.9662180180699081E-03
               5.0390581802557295E-03
              -5.3777681389407155E-03
               3.4786029593836089E-03
              -4.9780798495656850E-03
               3.4171947284361683E-03
              -6.3233307704166586E-06
               2.5940369104483756E-03
               1.3841082156226818E-03
              -1.9484852790181046E-03
               1.1622354671088648E-03
              -7.3840519786860228E-03
              -5.0991397469236721E-03
               4.3884940105440014E-04
               4.5516261385072738E-03
               1.4743884220777856E-03
               3.1152065687260187E-03
              -9.6666883045890134E-03
              -7.8203072091903450E-04
               7.9572742768996597E-03
               2.7357412216198777E-03
              -9.1895695004068547E-03
               8.9892272475190528E-03
              -7.8756592523574029E-04
               7.6035827655859540E-04
               5.0154612893640925E-04
              -7.3317463095026892E-03
               6.4597627489614276E-03
              -2.5942693990510453E-04
               4.8516976226630976E-03
               3.2630139597504197E-03
              -4.6961091587117169E-03
               1.6206723214989118E-03
              -5.1546193640088682E-03
               1.3347566700876667E-04
               5.6049719024008342E-04
              -4.8658693118525014E-03
               2.2080769138457714E-03
              -2.4730667592584108E-03
              -7.6713561979946847E-03
               1.6590758847012492E-03
              -4.7778648644852678E-03
               1.8938196422496052E-03
              -2.7528931540015474E-04
               2.3751981342964397E-03
               1.7814519315243808E-04
               3.4314701767442514E-03
              -3.6691703947291476E-03
               8.2961829789508399E-04
               1.0056877179799029E-02
              -8.9948123086231162E-04
               1.5172666259551991E-03
               3.7999669410409961E-03
               2.0323923116290585E-03
               3.3486151737871315E-03
               1.5711648688450550E-03
              -5.9856514012854301E-04
               2.1946898183501720E-03
              -6.6424942206434493E-03
              -2.2454585600872805E-03
              -3.1980512593291067E-03
              -5.1746366172085679E-03
              -1.3733858420258156E-03
               5.8616987930181297E-03
               1.3658974032657581E-03
               1.0334660608567100E-02
              -3.2466863645645816E-03
               2.8675786364040047E-04
              -2.5212581353570985E-03
               2.1149320530799787E-03
              -5.8241687515079091E-04
               7.5254894229204242E-03
               3.5114172600381561E-03
              -5.7329717168664723E-03
               2.5806776741059117E-03
               6.0586119686377865E-03
              -4.7945090726288341E-03
               1.8667270108273263E-03
              -9.7088800092748305E-03
               2.8388221678731251E-03
               1.4653975870653913E-03
              -9.3934879692019208E-03
               1.0935844350872255E-02
               1.0761762007480800E-02
               2.4270145043043434E-03
               4.7232378814137388E-03
               2.6695718402929463E-03
              -4.7225179643564034E-04
              -6.4410951080777941E-03
               3.0119504191886450E-03
              -4.0142809548050782E-03
               5.4933393435792318E-03
               9.7101383420252461E-04
               4.9368274217662074E-03
              -7.7470562707248236E-04
               4.8143600855522096E-03
              -2.5415227626036378E-03
               1.5170205273578963E-03
              -6.7863511302326965E-03
               6.6682979364688340E-03
               1.0549427214687089E-02
               3.0799494495990769E-03
               1.6513944313184419E-03
              -7.5202862111056930E-03
               4.4413532811135720E-03
              -1.3176478563447465E-03
              -1.5846669637177898E-03
              -8.5909735920669111E-03
               5.4444435266157521E-03
               5.0462060211412425E-03
              -3.3204723700763160E-03
              -4.1590212996263018E-03
              -1.6222143100592971E-03
               3.1263552339436556E-03
              -3.0936419471062756E-03
               5.8777427628768416E-03
              -8.1929897829813806E-03
              -5.3609762799416549E-03
               5.2548597558465483E-03
               2.3373049954550041E-03
               2.9871830197120332E-03
              -3.8995463087565098E-03
               1.0134243604934122E-03
               3.1223735860731668E-04
              -4.9532530629836525E-03
              -2.0660516953551374E-03
              -1.0339176441058032E-02
               9.3155407880662518E-03
              -1.4780221549670901E-04
               5.7907838793996745E-03
               2.2323059402713070E-04
              -1.5315057616654218E-03
               3.8287598341429896E-04
               1.1772067782038025E-02
              -7.3073410981644449E-04
               1.0365614151392421E-04
               2.0530188569210426E-03
              -6.2112807182321478E-03
               4.9617822792517785E-03
              -1.0310573476411458E-03
              -1.2353878635070234E-03
              -2.4621355769421037E-05
               9.7130329127662486E-04
               8.7213646892934883E-04
              -5.4509929600616274E-03
              -3.7377523943927168E-03
               6.2538954209606784E-03
               1.6509132552427930E-03
              -2.8821472448553403E-03
              -2.2201887948435427E-03
              -8.2029075634785001E-04
               5.3431511987379002E-03
               7.4804720179009604E-03
               1.0967248375210010E-02
              -1.0541485002514988E-02
              -2.5701186193260624E-03
              -1.7275547278937928E-04
               9.3918493027098039E-04
              -4.5654592193085045E-03
              -1.9487567765942423E-03
              -2.3435591014755296E-03
              -5.6680075557229781E-03
               1.5314624298720777E-04
               9.7696419203349809E-03
               1.4841683872439198E-03
               4.5024287429764335E-04
              -2.2432354333836247E-03
               2.8606553681207376E-03
               6.2041716377519230E-03
               3.2440452054244832E-02
              -7.2584938398901127E-03
               8.3407582676370870E-04
               6.8144733124014594E-04
               3.2354600671940939E-03
               6.8662726135178005E-04
              -1.8472361278356500E-03
              -4.9305901078005674E-03
               8.1994242013665088E-04
               3.8230157093871952E-03
              -2.6094029385537518E-04
              -3.1927699445780098E-03
               2.3106785753067411E-03
               8.0064834614348816E-03
              -5.7455759925545457E-03
              -1.4990381335014073E-03
               2.0901605552950523E-03
              -5.0956797038755140E-03
               9.0746354125002652E-04
               4.5013871840820997E-04
              -1.0039285404743880E-03
               4.5789600815551428E-03
              -2.4171014699238594E-03
              -8.9848080223925188E-03
               4.1615436453118432E-03
               8.9033018151200190E-03
              -4.8674289012632429E-03
               6.6132703521098943E-03
              -7.0195390390344718E-03
               1.7480225934268536E-03
               7.0812314638563963E-03
               2.1753141586213836E-03
              -9.4390046937973295E-03
               2.2187228838705477E-03
              -3.8710396927927769E-03
               8.0370409680414895E-03
               3.7764860057065666E-03
               3.4247647900317222E-03
               3.5945294092141547E-03
              -1.6777680460609045E-03
              -9.0963936363690351E-03
               7.8282582508351385E-03
               8.7060674697831450E-04
              -4.5822908233654242E-05
               9.8847997590554323E-04
               2.0937394494684003E-03
              -3.2270767361481300E-03
              -2.6196474924303267E-03
              -3.5990958622935366E-03
               4.8089248504086680E-03
               1.0650160986050773E-02
              -2.9744613124982242E-03
              -3.9447239030764381E-03
              -1.9387550021418706E-03
              -1.2566315930739975E-03
               1.8754321710090984E-03
              -3.0253680060060104E-03
              -1.1220920850272696E-03
               4.6337643188026451E-04
               3.1286071139711223E-03
               2.7013735861261472E-03
               4.2466276190516600E-03
              -5.8367771122186983E-03
              -1.0303618173574554E-03
              -2.4683886107590442E-03
               1.8441221014152552E-03
              -2.3765625286066051E-03
              -2.8874820595162155E-04
               4.8255951651182049E-03
               1.5803103128162975E-03
              -5.2030128850853747E-03
              -3.8937858393697259E-03
               2.3378450425245835E-03
              -3.2769952174828429E-03
              -3.6275001405537306E-03
              -1.0712657237358886E-03
              -3.8241457780681413E-03
              -2.0388652753568818E-03
               5.4318828464523256E-03
               4.3874521882347247E-03
               7.6009000818086847E-03
              -2.1458018806807456E-04
               5.4340697738510264E-03
               6.2610937613884904E-04
              -1.0465442940365925E-04
               1.7966376394828575E-03
              -3.1938460850491645E-03
               1.9325240587711584E-03
              -7.2857006286201377E-04
              -6.7449041959558474E-03
               7.5149217456761527E-03
               4.4447974618678360E-03
               4.6247760260681361E-04
               3.2099119896652947E-04
              -1.2431548379991431E-02
               9.4856596302246108E-03
               1.4250729434351181E-03
               1.5457408862479913E-03
              -1.3537680264254139E-03
              -1.1982319082719180E-02
               1.6003822409649264E-03
               4.4891654490097754E-03
              -3.4908564485453294E-03
              -3.8211663113019451E-03
               7.7811269170701552E-04
              -7.6668884029639341E-03
              -7.5073885381955969E-03
               9.2613000104154464E-03
               9.2602897724467174E-03
              -1.7402131514884686E-04
               4.1017622697905390E-03
               8.1494852695120827E-04
              -3.1294749767218238E-04
               4.9392792921379280E-03
              -4.2115480110400004E-03
               9.7850959032059603E-03
               7.0295826577232261E-04
              -9.3402527112928600E-03
              -2.6115521494107169E-03
               1.0854136054619177E-03
               6.1188154964918881E-03
               9.1915283437339727E-03
               2.7302284191773772E-03
              -3.9546126519314608E-03
              -1.3010973829617480E-03
               2.4373457465929520E-03
              -1.8129430142659671E-04
               9.8144580533050356E-03
              -2.1923106936394567E-04
              -3.1559837443099212E-03
              -8.5728094010412549E-04
               2.9940032768019922E-03
              -1.5281178707915106E-03
              -1.1072265922239671E-03
              -5.4094525243828500E-03
              -3.6503170653274420E-03
              -4.9064162337576706E-03
              -6.0406078089905745E-04
               3.7416746935405201E-03
              -2.0016832023058194E-03
               1.5629376913139524E-03
              -1.6440230581557338E-03
               3.9375762971375228E-03
               1.7741350894132971E-03
               2.3807445549769205E-03
               1.7188052045362611E-03
               2.4650958714938073E-03
               3.9812915954672403E-03
              -6.3945797926443478E-03
               2.6133624615447889E-04
               2.9100049561546723E-03
               1.5722976542033495E-03
              -2.9358992154748728E-03
               2.6009282417800541E-03
               4.3714201086260751E-03
              -1.4708071225221983E-03
               7.8346907891476423E-04
               4.0418877672787346E-03
              -5.5851016580475655E-03
              -2.0897845283568079E-03
               1.1100190725600076E-02
              -6.9754657569345532E-04
               2.0867304064833645E-03
               5.5517845488813290E-03
               3.8263538927880278E-03
              -6.9841486791694446E-03
               6.0105472924246390E-03
              -3.3583288195982459E-03
              -1.3458541744599264E-03
               2.7496117363561678E-03
              -7.4816934185319367E-03
               4.1529693753441259E-03
              -2.5806474371287379E-03
              -3.7123010168757971E-03
               1.5889801421726578E-03
               4.0903720464834483E-03
              -8.9918617121473171E-03
               1.9521735683918804E-03
               2.5473173708634092E-04
               3.3552661721010586E-03
               6.4568286228404541E-03
               5.5885660259357827E-03
               2.4986429348108712E-04
               2.8925411770143166E-03
               1.6442852755428027E-02
               2.7329948536258797E-04
              -1.7164202856579661E-02
              -6.0435101088310399E-03
               3.9340784638602104E-03
               6.2745800855222816E-04
               9.5767988474484099E-04
               3.3449877602986924E-04
              -4.8906850440695528E-04
              -2.9712351010240177E-03
              -1.1708219217804742E-02
              -5.2643786492418123E-03
              -2.7447269564801393E-03
               6.8837350112898434E-03
               1.7342293844676518E-03
               2.7248054357069482E-03
              -1.9619289252668900E-03
              -2.0693007741431147E-03
              -5.3241025450152246E-03
              -5.8005846912688244E-03
               6.3119686416900523E-04
               5.4342812678186189E-03
               6.2180510122887460E-03
              -4.6757463444591502E-03
              -2.0400024289156647E-03
               4.6041589749342381E-03
              -1.8134103860187247E-03
              -5.7840249089692475E-03
               5.2633864384168082E-03
               7.2145831258262094E-04
               1.7048194005034839E-03
               2.9042749156166063E-04
              -1.9051078108730721E-03
              -4.0428471072761251E-03
              -1.3940074888039735E-03
               3.1760998455877569E-03
              -1.2467524828579447E-03
              -1.9455062177910676E-03
              -7.6114160269965213E-04
               1.4590664378123946E-03
               2.5191475570777045E-04
              -2.0747720271898657E-03
              -5.2083686997189847E-03
               2.8190840454903501E-03
               3.9960044136266295E-03
               3.9615333417864929E-03
              -5.0454003673898315E-03
              -5.2117680702241601E-03
               1.4396631718465551E-03
               3.3675183649019575E-03
               2.8587770230439086E-03
               2.5377880798615779E-03
              -1.4232655180631474E-03
               5.4099061632136112E-04
              -1.1138960772193551E-03
               6.0767026553190120E-04
              -4.4687815243394623E-03
              -2.5630206038613950E-03
               8.6659874525302303E-03
              -3.9906865175323982E-03
               7.3739360263791616E-04
              -4.8031062716869227E-03
               1.9743537630057210E-03
               4.7231616931776785E-03
              -2.9980048194714801E-05
              -7.8876160393298155E-03
              -1.0398833897567272E-02
               3.8387425816627709E-03
               1.0809183638605531E-02
               2.9995751380900476E-03
              -3.8654591535481077E-03
              -3.0043084638523270E-03
               6.3959511928370939E-05
               2.9914517463961853E-04
               9.7194060806840774E-03
               2.0382809040427898E-03
              -1.2357122243817928E-03
               4.0771747665354864E-03
              -1.1833038356180298E-03
               6.1229854499104354E-03
               6.1921358882042780E-03
               6.2348851958880947E-03
               4.4761529665582429E-03
              -1.0563291313007541E-02
              -3.5251215995713184E-03
              -5.0213711293024908E-03
               5.6765752476279352E-03
              -2.5350280213124903E-03
               2.1992198566487441E-04
              -5.1863613823568940E-03
              -7.1312128658683749E-03
              -1.1575337182853909E-03
               3.6784110320079073E-04
              -1.0760380216322547E-04
               7.0240857997667131E-03
               9.1379833693791927E-03
              -2.4472836079447086E-03
               3.9675312335309219E-03
               7.3981571370684640E-03
               5.6633302263274718E-03
              -7.5082430504258904E-03
              -4.6183009267076166E-03
               8.6211245621281140E-04
               1.7989105452752188E-03
               4.5703281207281384E-04
              -2.1735648545157779E-04
               2.1766063034076594E-03
              -3.5555039092149093E-03
              -3.9180496120905847E-03
               3.3342876205580602E-03
              -1.6010148456725895E-03
              -9.6124598082912376E-04
               8.6317243774375677E-04
               5.3002081335650094E-04
              -9.3512063316854418E-04
              -4.9942896694895103E-04
               4.3596574513626238E-03
               6.6580016629375861E-03
               1.5300453103089941E-03
              -5.2120709575781835E-03
              -4.9982100637621278E-03
               1.7330957906465014E-03
               2.6393860768603710E-03
              -1.1207545915860042E-03
               3.6000221830967257E-03
               3.8435702599928781E-03
               9.0893873470226667E-03
              -7.8241560969450046E-03
              -4.4740827866498317E-05
              -8.9033829945300575E-04
               1.6434048432990330E-03
               6.5749521603031508E-04
               5.3419802332584998E-03
               2.0528641441291415E-03
               5.5262464537858829E-04
               1.3568760388904407E-03
              -1.0221704257139207E-02
               1.6758046504310863E-02
              -2.9143687015076238E-03
              -6.2601403515556231E-03
              -3.1937231142435455E-03
               5.6958819312014049E-03
               5.3688073305981267E-03
              -1.2619053635515940E-03
               1.7860931588954438E-03
               2.4525886748516836E-03
              -4.8115074051562675E-03
              -9.3883858057204825E-03
               1.0192624693453603E-02
              -7.8492299239341784E-03
              -5.8340340345415494E-03
               3.7569178872387172E-03
               3.0528660043344612E-03
              -5.9695733953997899E-04
              -1.1413804326630538E-02
               4.7113172377660738E-03
               3.8961707672249437E-03
               2.8964909841055819E-04
               6.6153680386143077E-04
               1.6980823649756010E-03
              -3.1537957904661002E-03
               1.2686064087899362E-03
               6.6862224184118489E-04
               1.2752456476932729E-03
               4.6266935743968195E-03
               2.1964633362657497E-03
              -5.5127901974576171E-03
              -8.6431924220536395E-04
               1.3859647286120903E-03
              -8.7279909769356478E-05
              -4.2196548121355073E-04
              -3.4650586320170026E-03
              -1.2269298356301591E-03
               6.7637335920125233E-03
               6.1186345360769354E-04
              -3.8035121637392325E-03
              -5.7508851244027701E-03
               4.4902172055216122E-03
               2.8516847328760404E-03
              -2.9048663416889778E-03
               3.6697303541055062E-03
              -6.2271360067924272E-03
               1.0051928242176654E-02
              -3.7511244043886825E-04
              -5.5364425174485891E-03
              -4.7046923227359142E-04
              -1.7815806805496209E-05
              -2.9976373371540695E-03
              -8.7248079528427498E-04
              -2.9839464017790435E-03
              -7.0546108858286190E-03
              -4.1626447361393579E-03
               1.0234554794586079E-02
               2.6797016979524576E-03
               4.3658874808854510E-03
               2.6419725103382402E-03
               1.3008800447798070E-03
               1.7148374620532666E-03
              -4.1875511759260934E-03
              -8.1327553043321517E-04
              -4.8006090326282449E-04
              -2.5013879146288161E-03
               3.4366547729136397E-03
              -1.4264848673899986E-03
              -1.5557156185823566E-03
              -2.9225974237628892E-03
              -2.3144098967660038E-03
              -3.2904364089984227E-03
               2.2856211585812435E-03
               3.1019476825904922E-03
               9.2867035341922689E-03
               9.2112370547893577E-03
              -7.3838184938839427E-03
         &END THERMOSTAT_ENERGY
         &RNG_INIT
Wiener process for Thermostat # 1        1 F T T  -9.8236738167888460E-01         226733040.0        4248387519.0        1164353849.0        2758509449.0        3644127687.0        1764793484.0             12345.0             12345.0             12345.0             12345.0             12345.0             12345.0             12345.0             12345.0             12345.0             12345.0             12345.0             12345.0
Wiener process for Thermostat # 2        1 F T T  -1.4171306107827426E+00        1528154308.0        2775625301.0         197130159.0        1452211673.0        1835562137.0        1983376171.0        3692455944.0        1366884236.0        2968912127.0         335948734.0        4161675175.0         475798818.0        3692455944.0        1366884236.0        2968912127.0         335948734.0        4161675175.0         475798818.0
Wiener process for Thermostat # 3        1 F T T   8.6049543281786645E-01        2248570378.0        1724762616.0          52903713.0        3229622658.0        3199004837.0        4241126217.0        1015873554.0        1310354410.0        2249465273.0         994084013.0        2912484720.0        3876682925.0        1015873554.0        1310354410.0        2249465273.0         994084013.0        2912484720.0        3876682925.0
Wiener process for Thermostat # 4        1 F T T  -1.5460863137690717E+00         957380376.0         510326667.0        2247033635.0        2033071685.0        3054261466.0        3462352516.0        2338701263.0        1119171942.0        2570676563.0         317077452.0        3194180850.0         618832124.0        2338701263.0        1119171942.0        2570676563.0         317077452.0        3194180850.0         618832124.0
Wiener process for Thermostat # 5        1 F T T   1.5428690481661575E-01        4203301200.0         738999836.0        1485820986.0          20648636.0        2223680357.0        4294941489.0        1597262096.0        3906379055.0        3312112953.0        1016013135.0        4099474108.0         275305423.0        1597262096.0        3906379055.0        3312112953.0        1016013135.0        4099474108.0         275305423.0
Wiener process for Thermostat # 6        1 F T T   7.0411917217518150E-01        1265311014.0        3687607523.0        1792102642.0         142025920.0         459804801.0        1211121065.0          97147054.0        3131372450.0         829345164.0        3691032523.0        3006063034.0        4259826321.0          97147054.0        3131372450.0         829345164.0        3691032523.0        3006063034.0        4259826321.0
Wiener process for Thermostat # 7        1 F T T  -9.5744195640119531E-02        4040223344.0        4246262317.0         329086624.0          28777921.0        2946509694.0        1489700490.0         796079799.0        2105258207.0         955365076.0        2923159030.0        4116632677.0        3067683584.0         796079799.0        2105258207.0         955365076.0        2923159030.0        4116632677.0        3067683584.0
Wiener process for Thermostat # 8        1 F T T  -1.2413826789147817E-01         252045112.0        2848200345.0         154646410.0        1271924195.0        1873079261.0        3351978939.0        3281794178.0        2616230133.0        1457051261.0        2762791137.0        2480527362.0        2282316169.0        3281794178.0        2616230133.0        1457051261.0        2762791137.0        2480527362.0        2282316169.0
Wiener process for Thermostat # 9        1 F T T   1.0331244080464512E+00        3784506675.0        1914172684.0        3527875272.0        1610827989.0        3855196701.0        1117597481.0        3777646647.0        1837464056.0        4204654757.0         664239048.0        4190510072.0        2959195122.0        3777646647.0        1837464056.0        4204654757.0         664239048.0        4190510072.0        2959195122.0
Wiener process for Thermostat # 10       1 F T T   2.1466585360569199E-01        3057685686.0        2869029583.0         411221469.0        2821893460.0         322924656.0        1143227575.0        4215590817.0        3862461878.0        1087200967.0        1544910132.0         936383720.0        1611370123.0        4215590817.0        3862461878.0        1087200967.0        1544910132.0         936383720.0        1611370123.0
Wiener process for Thermostat # 11       1 F T T  -4.4132046785776799E-02        1554543736.0        2717576499.0        4135075403.0        2618383353.0         642871762.0         249586537.0        1683636369.0         362165168.0         814316280.0         869382050.0         980203903.0        2062101717.0        1683636369.0         362165168.0         814316280.0         869382050.0         980203903.0        2062101717.0
Wiener process for Thermostat # 12       1 F T T  -5.6161533877704317E-01        1770324141.0        3770017049.0         190859559.0         764828178.0        2918138424.0         736540625.0         272317999.0         166758548.0         310112982.0         201045826.0        1680231254.0         118290799.0         272317999.0         166758548.0         310112982.0         201045826.0        1680231254.0         118290799.0
Wiener process for Thermostat # 13       1 F T T   9.7554409384929153E-01        3627045108.0        1898589428.0        2752141753.0          85759421.0        2499273175.0        1137986601.0        2245755202.0        1652682525.0        2865544364.0         721509566.0         209733568.0         592362218.0        2245755202.0        1652682525.0        2865544364.0         721509566.0         209733568.0         592362218.0