 # Version information for this restart file 
 # current date 2023-12-18 22:05:28.132
 # current working dir /scratch/mj3313/comp-lab-class-2023/Week12/Runs/Proton
 # Program compiled at                              Sat Dec 12 18:27:15 EST 2020
 # Program compiled on                                         cs001.nyu.cluster
 # Program compiled for                                                nyu-intel
 # Source code revision number                                       git:8c64c6e
 &GLOBAL
   PRINT_LEVEL  LOW
   PROJECT_NAME proton_aimd_1ns_every0.5fs
   RUN_TYPE  MD
   WALLTIME 21600
 &END GLOBAL
 &MOTION
   &GEO_OPT
     OPTIMIZER  BFGS
     MAX_ITER  100
     MAX_DR     3.0000000000000001E-03
     &BFGS
     &END BFGS
   &END GEO_OPT
   &MD
     ENSEMBLE  NVT
     STEPS  2000
     TIMESTEP     4.9999999999999994E-01
     STEP_START_VAL  1500
     TIME_START_VAL     7.5000000000000762E+02
     ECONS_START_VAL    -1.1027999833048332E+03
     TEMPERATURE     3.0000000000000000E+02
     &THERMOSTAT
       TYPE  GLE
       REGION  MASSIVE
       &GLE
         NDIM  5
         A_SCALE     1.0000000000000000E+00
         A_LIST     1.8595758612559999E+02    2.7263853498399998E-01    1.1526100454610001E+01   -3.6414578262600003E+01 \
             2.3173375816020001E+02
         A_LIST    -2.7809524712060002E-01    8.5951591808710006E-05    7.2189048017650004E-01   -1.9844539343859999E-01 \
             4.2409257583420001E-01
         A_LIST    -1.4825808131210000E+01   -7.2189048017650004E-01    1.3590902121280000E+00    5.1498896280349999E+00 \
            -9.9949268450990001E+00
         A_LIST    -1.0372189126880000E+01    1.9844539343859999E-01   -5.1498896280349999E+00    2.6661910891169999E+01 \
             1.1507715495310000E+01
         A_LIST     2.1801346360420001E+02   -4.2409257583420001E-01    9.9949268450990001E+00   -1.1507715495310000E+01 \
             3.0958394565589998E+02
         &THERMOSTAT_ENERGY
               8.8209945916794446E-05
              -4.0777053435008312E-04
               1.7383438676604641E-03
               4.8425417641898942E-03
              -1.3383867153095410E-02
              -1.2831278143726524E-03
              -5.1404560478626928E-03
              -2.0068380837596735E-04
               1.0790411609069548E-02
               2.8964555346790632E-03
               9.4108276999901649E-03
              -6.1238988607958764E-03
               3.1444053516868522E-04
              -7.3229864559994232E-03
               6.2235967947190480E-03
              -2.5125008283771156E-03
               4.3095852613788095E-03
              -7.8354211287426940E-03
               2.7761266015294181E-03
               2.8994518616268952E-03
               1.5085037471732621E-03
               4.2016009306074121E-03
              -3.6384114932398728E-03
               2.5804737446575620E-03
              -5.0951464791627087E-03
              -7.6332498351009545E-03
              -1.7793252908957814E-03
               1.5349741762488934E-03
               2.9711103545301230E-03
               3.8549447316752186E-03
              -1.2254403518719887E-02
               7.0822260955893924E-04
               1.0469022145986748E-02
               1.1790098203734983E-03
              -7.7668134944268294E-03
               1.4519795997824540E-02
              -1.6944381828089192E-03
              -3.1579873114750382E-03
               1.3757837907497482E-03
               2.8470843881336797E-04
               4.5914052659768705E-03
              -4.9121416891073190E-03
               6.6650033368007549E-03
               3.9243196091526154E-03
              -3.0825944691218556E-03
               1.1201661794967943E-03
              -3.5476027902930050E-03
              -3.7969667529755649E-04
               3.6121355997992335E-03
               6.7778743581869954E-03
              -1.0206895773951521E-03
              -9.4855990255371739E-04
              -7.5382753422857784E-03
              -4.2581476079465788E-03
              -7.6679832488632752E-03
               3.8250143919275636E-03
               1.1064075288732753E-03
               1.9522277462413959E-03
               1.6491721812758424E-03
               1.7523673497908759E-03
              -5.2903007244696140E-03
              -4.3031086908532652E-03
               1.6431319425566311E-02
              -7.5037250050728960E-04
               5.3356097927853832E-03
               6.4021165483350772E-03
              -7.5972143131034365E-04
               5.7188156091567566E-03
               2.9261047650816661E-03
              -1.3509108820563404E-03
              -2.0521487462432479E-03
              -7.1555217198214435E-03
               2.5208861244249670E-04
              -5.5019639987206089E-04
              -3.9934885412981113E-03
              -5.4138379774862767E-04
               3.8655065360888841E-03
              -4.7108172023463072E-03
               9.4496292995948847E-03
               1.5708558871270814E-04
               5.2853430881362826E-03
              -2.2379379706014848E-03
               3.2621582965692447E-04
               9.6760126178810184E-04
               1.1300652484353742E-02
               2.4793607977062547E-04
              -3.4396620387179494E-03
               3.5647747080419269E-03
               5.0459807363771184E-03
              -4.1250049770835996E-03
               5.0074447994777659E-03
              -9.8086159638715014E-03
               2.3961963265259783E-03
              -1.8080171163504875E-03
              -2.1477780279159243E-03
               9.6491890370227866E-03
               4.1626336034295691E-03
               3.3364165193681223E-04
               5.5160530330353391E-03
               6.1499309092281282E-03
              -5.4568605777341531E-03
              -1.5757847613097568E-03
               5.1145108494941088E-03
               3.7998722584491450E-03
              -2.3998478679669167E-03
               8.9128456529612102E-03
               7.5333343250232080E-03
              -6.0156228416417554E-03
               5.8460814132183635E-03
               3.0399045095343999E-03
              -8.7863795321320209E-04
              -6.7626148864984737E-03
               1.0051615239973456E-02
               9.2425714391437524E-03
               1.7238440902950884E-03
              -1.5131834017582417E-03
               1.6316684696838682E-03
               7.0087839859319535E-03
              -2.5683593940468638E-03
              -5.5734066137979417E-03
              -4.0540569414120537E-03
               3.6660258665582989E-03
               3.2727863000235396E-03
               9.1458699198502147E-04
              -9.2255851178013638E-03
              -4.0433595979075870E-03
               4.6274125888770131E-03
              -2.6714973465275342E-03
               6.7102897094042900E-03
              -9.6527014304720327E-03
              -7.4363943077658864E-03
               1.2556334208901161E-02
              -1.2600218423890722E-03
               6.4931367550603121E-04
              -1.3082221267554386E-03
               7.5826975852493709E-04
               3.5918879993262812E-03
              -7.6464564421103746E-03
               2.9604416375182360E-03
              -6.5683556676749272E-03
               6.5580574041833638E-03
               5.1820247938896965E-04
               6.6848544737707332E-03
               4.4457751204100785E-03
              -4.8907233733523799E-03
              -3.0353667768134580E-04
               1.3166482217651362E-02
              -4.0067300533692535E-03
               3.0534642413628226E-04
               6.6729224784520284E-03
              -1.2794366780277832E-02
               5.4301490539122336E-03
              -6.3404133494376230E-05
              -4.8068114784683086E-03
               5.1816135500317127E-03
               6.8670694055131232E-04
               4.9478041369749879E-03
              -8.5285621002405537E-03
              -4.9798353481609542E-03
               4.9367980346715816E-03
               5.9210055726322160E-03
              -3.8943823267303607E-03
              -7.6451715648181385E-03
               1.2948382971554753E-03
               9.3934524392786552E-03
               7.9675121060311591E-03
               7.9820722238229721E-03
              -1.6109755948311599E-02
              -9.4317243470133281E-04
               2.1174023156568596E-03
               4.8025284296921935E-04
              -1.2392366223597177E-03
              -1.9489545211866389E-03
              -5.7209736995679564E-03
              -1.1719425165945263E-02
               4.8199140504522005E-04
               1.2127696099315329E-02
               7.9625146736322216E-03
              -4.3164359920887631E-03
               6.7384364881796950E-03
               3.2394587022151308E-03
               5.5339025352808616E-03
               3.1308051981927536E-02
              -7.4095778806295576E-03
              -3.0631015973671367E-04
               2.6278678134091025E-04
               8.8357683713709816E-03
               1.3494037005375812E-03
              -4.6665492776993139E-03
               1.2106644696390436E-03
              -3.4255778721904362E-03
               2.3449230956978811E-03
               2.7712507363147529E-03
              -4.8119319278796158E-04
               2.3984393692893700E-03
               6.0042052596449872E-03
              -6.9769492582227293E-03
              -4.2870633769975328E-03
              -2.4940656684023310E-03
              -1.0566214745216229E-03
               2.3893730721205176E-03
               1.1786952105492987E-03
               3.2904788186055394E-04
               5.4082745641977677E-03
              -7.7046525169507107E-03
              -1.0217004448872425E-02
               8.1254374388541155E-03
               5.9789765103696567E-03
              -3.2323704390812176E-03
               3.3951304692464578E-03
              -6.6755689114473011E-03
               1.0053174804791690E-03
               3.0299524724680445E-03
               3.2981255628942675E-03
              -6.7008859989917324E-03
               4.2275515249875504E-03
              -7.1006168981574726E-03
               7.8406640407769849E-03
               1.2682550322482594E-03
               2.4555686610230019E-03
               1.8491065493657964E-03
              -3.0617238200152130E-03
              -1.2699567273488768E-02
               6.0875131236495265E-03
               5.2740266157875445E-03
              -2.8866637742442323E-03
              -3.4532091682057662E-03
               6.1397748279630642E-03
               1.1888485421747710E-03
              -3.1318233690285160E-04
              -4.8971034732599172E-03
               5.5960293172205040E-03
               9.3927212611161718E-03
              -1.0169929100899037E-04
              -3.7674275999166253E-03
              -4.0185934504806129E-03
              -4.5210522237483673E-03
              -5.2444424866840346E-04
              -4.1036586525511377E-03
              -1.3030546946760848E-03
               4.6700118201322052E-03
               5.3826353447191562E-03
               4.2393753948396368E-03
              -7.8464781957132506E-04
              -4.1403951019021732E-03
               9.7391727266107745E-04
              -1.2004935567042332E-03
               7.7329659980596773E-04
              -4.9727653105587294E-03
              -1.9390178629395413E-03
               9.1940795605017448E-03
              -3.1847355774154702E-03
              -6.2075722159178285E-03
              -8.8975372117440950E-03
               5.3637844490874442E-03
              -2.9427671193829109E-03
               2.6201827437590317E-04
              -2.6452953535086791E-03
              -9.4866870548562347E-03
              -2.2388629953085223E-04
               1.1887613683552007E-02
               5.8718375554176489E-03
               8.5684617950814966E-03
              -5.6709646458138717E-03
               4.9776117604755209E-03
              -6.0302338438006434E-03
               1.0060056504686583E-04
              -5.4838710746448751E-04
              -1.8848062587497585E-03
               3.6739482334569129E-03
               1.7464303851895903E-03
              -7.8824370030490080E-03
               6.8252212821748714E-03
               7.3524252872876538E-03
               1.9529589551054356E-03
              -7.9840503533989624E-04
              -2.0814324600241987E-02
               1.3184435024420384E-02
               4.9940627911811307E-03
              -8.2235650130430427E-04
              -8.5326460182542641E-03
              -5.2420607900637226E-03
               1.6322729398681372E-03
               3.9518675614830367E-03
              -3.5292538255663058E-03
              -3.2749251486337430E-03
              -4.8740475693208102E-04
              -5.7044538147758917E-03
              -4.6847196513042193E-03
               6.7444584175178797E-03
               1.1143049475598710E-02
              -1.9308824245752709E-03
              -2.3936471928650820E-03
              -2.3813810666451401E-03
              -5.3595312266624066E-03
               8.7290521339312508E-03
              -1.7626591988736005E-03
               1.8460690333822662E-02
               4.6816225072862319E-04
              -8.4942992514371405E-03
              -7.0419457646541414E-04
              -5.6348514678535684E-04
               6.4313120750738783E-03
               1.1593976689071693E-02
               2.7431343303674690E-03
              -6.0011006230172321E-03
               5.0424612390252855E-03
               5.4568058049754469E-03
               8.7195887973662192E-04
               1.0994326852137245E-02
              -4.4718986209734682E-04
              -3.3086307192529757E-03
               6.9341485423697535E-03
               6.5025982294338177E-04
              -6.2028020638592142E-03
              -1.8651978210472656E-03
              -1.5339350902523327E-03
              -2.8808235170871004E-03
              -1.0746593485460289E-02
              -2.8916116600147361E-03
               1.1578747888749841E-03
              -1.9877576028354024E-03
               2.2853960876425728E-03
              -6.0814226613517357E-04
              -1.1253962761195728E-03
               1.1660445009917730E-02
               2.3615285524835276E-03
              -1.6622697401908475E-03
               1.2631090200610786E-04
               5.6949387460056410E-03
              -9.7624403250060506E-03
               2.6604446101709959E-03
               4.0620585607694330E-03
               5.0760650583330804E-04
               6.9543456458532726E-04
              -1.8916320124413085E-03
               2.9318947527460673E-03
               3.7998851818221431E-03
               1.1378455298204958E-03
               4.1194192570483288E-03
              -8.3431965598471779E-03
              -4.7352646839004548E-03
               7.1315901150459278E-03
               4.0425701500466848E-03
               2.1268968855883089E-03
               6.9285929877887665E-03
               4.3842039827851906E-03
              -8.7734333961656599E-03
               6.3553306824897394E-03
               4.5254702792449250E-04
              -7.5450756187804575E-03
               5.1985356057175480E-03
              -1.1061154394851398E-02
               3.2324130112812047E-03
              -9.7941011411937931E-04
              -4.8655527933983362E-03
               4.3481086311954803E-03
              -5.9589830830229021E-03
              -3.3971845839128757E-03
              -4.5246487405795517E-03
              -3.7771580113658029E-03
               1.5968191831743201E-03
               1.1866795076353718E-02
               7.2571799503145301E-03
              -4.0873943518570793E-03
              -2.8730720230053125E-04
               1.7371792783422563E-02
              -2.2528944184015678E-03
              -1.6789881004428558E-02
              -6.3586077782085328E-03
               4.4100162665316051E-03
               1.4658709642156760E-03
               9.6450697119158414E-04
              -6.0310435724755234E-03
              -1.4622437464373436E-03
               2.7472586089910913E-03
              -1.9261317634462812E-02
              -1.0634783991153859E-02
               5.4933261995142061E-03
               9.1269183590737303E-03
               7.8617493278557030E-04
               4.9532435006071560E-03
              -3.3871077463379540E-03
              -2.2713795530218545E-03
              -5.1813611247601837E-03
              -1.2071895313732824E-04
              -3.7773489785740638E-04
               5.9650748602211616E-03
               1.2225544495258343E-02
              -5.2335054790439281E-03
              -4.6558355446284757E-03
               6.6378620077147269E-03
              -1.9044842773824726E-04
              -2.1918074299629728E-03
               8.1438003462063566E-03
              -3.8091501909371822E-03
              -4.6627567606044359E-03
               9.8197494802123144E-04
              -2.8805863649719772E-03
              -1.9237551265309015E-03
              -2.8762338234186889E-03
               6.9745067353980577E-03
              -7.1592205402190032E-03
              -2.9831452137240580E-03
               6.4959281132376560E-05
               1.8920819272943679E-03
              -3.2000738688391858E-03
               2.8915008048067503E-03
              -4.1502602454112133E-03
               2.6451351832133827E-03
               1.9250099158801312E-03
              -4.1658892033165163E-03
              -2.8559807082220740E-03
              -1.6017920006437254E-03
               2.2641713036799958E-03
               1.8893207528473891E-03
               5.4315002823534788E-03
               2.0576756508288207E-03
              -8.6699214446437918E-04
              -1.9400117789579992E-03
              -5.8119974859809596E-04
               3.2594350360962607E-03
              -3.1764334889842465E-03
              -8.7880309474688972E-03
               1.0068692156440464E-02
              -6.6370690129530197E-04
               2.1557040814809631E-03
              -4.4707002199525113E-03
               3.5041602544265600E-04
              -1.7927879225318462E-03
               1.3020372472443567E-03
              -9.5893090658879642E-03
              -1.8100825391727166E-02
               1.0394815110530867E-02
               1.3154806555740639E-02
               4.5486035036065558E-03
              -6.1740664305030123E-03
              -4.2089853225294096E-03
              -2.3840965880569938E-03
              -1.2612819471871537E-03
               7.3813587214313090E-03
               2.6693917892879867E-03
              -1.5441877525333759E-03
               6.6708324414635062E-03
              -1.0225649523369444E-03
               5.7244025739429678E-03
               6.0551570540816422E-03
               1.1645960407998786E-02
               6.3450420350795751E-03
              -1.6382942039678581E-02
              -3.9062053328197586E-03
              -4.1882751950570018E-03
               4.1875922897642503E-03
              -1.0642515459053886E-03
              -1.2420131951889480E-03
              -5.0622403262912900E-03
              -1.7181478238118275E-02
              -1.2322182478959755E-02
               8.0332391058048642E-03
               3.5968655205148750E-03
               1.3729138068010934E-02
               5.9740288317797997E-03
              -3.8786440818480198E-03
               4.0729201340336807E-03
               7.6094209660420905E-03
              -1.0149647193756974E-03
              -1.3514237645825289E-02
               2.7954984976647878E-04
               6.8653035368254033E-03
              -2.0360866227434535E-03
              -4.6943247792052790E-03
              -1.4572067478781346E-03
               2.6888183149477163E-03
              -2.0834235842516931E-03
              -5.0494162301776089E-03
               5.4303385794527061E-03
              -1.2474080414043077E-03
               9.5475990257432876E-04
              -2.9122111041682101E-03
               9.9784687649678914E-04
               8.7068896511796016E-04
              -2.5402882965337228E-03
               6.6575281614679989E-03
               4.5028388198089129E-03
              -1.6294841155151708E-03
              -3.7857017094559938E-03
              -3.5877074233170380E-03
               1.8158374514046604E-03
               4.1774533953260256E-03
              -4.7073313099660048E-04
               5.7554698007955636E-03
               1.4397179647533636E-03
               1.3378550768766604E-02
              -6.1608699214536341E-03
              -6.8488766665415948E-03
              -4.5256115206408366E-03
               9.0393592531094226E-04
               2.2309130755536572E-03
               4.9833544366895697E-03
               6.0975613807892418E-03
               4.8773417975799486E-03
               4.0916644404576201E-03
              -9.6315510609910875E-03
               1.1006860315875094E-02
              -4.4119813822087936E-04
              -1.0156003150653552E-02
              -7.4444301127754584E-03
               7.5144546224560384E-03
               8.2692331756637309E-03
               1.4614680077081330E-03
              -6.0166946430475592E-03
               4.7744247592537781E-03
              -4.5100618040577649E-03
              -3.1117695180123556E-03
               1.1112747040022146E-02
              -1.7357470839880193E-02
              -6.7974998305779756E-03
               6.7391154456454515E-03
               2.5357523742506613E-03
               3.2213157231882183E-03
              -1.4515431016746403E-02
               2.0732818341390913E-03
               1.0946707852019642E-02
              -4.1921517160120898E-03
              -4.5515360311881269E-03
              -4.5801742167050501E-04
              -4.5983153005473548E-03
              -9.2083981277741233E-04
               6.5232552855063880E-03
              -1.9783794478399619E-03
               4.5648436864999132E-03
               5.7256224986685722E-03
              -1.0899591177275061E-02
              -3.1877466029919177E-03
              -9.7823923632134519E-04
              -1.9109560970709350E-03
               5.0480485546541430E-04
              -7.5652378746942639E-03
              -2.0748216104859211E-03
               9.6523901511890442E-03
               2.5937296285752890E-03
              -6.6901123702867325E-03
              -4.8206522655423522E-04
               2.0576203893007158E-03
               5.8503509116266238E-03
              -5.5123661413436316E-03
               6.1420463673397385E-03
              -6.1742823639835531E-03
               8.9004261612888984E-03
               4.0538363205359831E-03
              -5.7968923908705344E-03
              -1.3704285712350290E-03
              -1.2092759000679563E-03
              -4.6731182236491092E-03
               5.1759593911161262E-04
              -3.1355410412722672E-03
              -1.0857972851873658E-03
              -1.8535434726406766E-03
               1.3344651053767795E-02
              -7.5153259232268164E-04
               7.3257680962343836E-04
               4.1435504446893532E-03
               7.1507434873036230E-04
              -1.6743634981886534E-03
              -3.4200226356954893E-03
              -7.2735434217985010E-03
               1.5876170821916566E-03
               6.5942771704260322E-04
               3.2475953093399675E-03
              -1.4426326920298116E-03
              -1.3932053569842067E-03
              -5.5224941174906381E-03
              -3.4659117526088289E-03
              -5.6331428043919357E-03
               6.6332007911763585E-03
               2.9630344118926734E-03
               1.1065778127550918E-02
               7.5921678167225068E-03
              -7.9064212716530753E-03
         &END THERMOSTAT_ENERGY
         &RNG_INIT
Wiener process for Thermostat # 1        1 F T T   1.0570193072987602E-01        2554248455.0        3733268398.0        2096963647.0         915983833.0        1292997779.0         989563289.0             12345.0             12345.0             12345.0             12345.0             12345.0             12345.0             12345.0             12345.0             12345.0             12345.0             12345.0             12345.0
Wiener process for Thermostat # 2        1 F T T  -5.0729818522276993E-01         187792199.0        1332764939.0        1272087322.0         282682701.0         988697858.0        4086000388.0        3692455944.0        1366884236.0        2968912127.0         335948734.0        4161675175.0         475798818.0        3692455944.0        1366884236.0        2968912127.0         335948734.0        4161675175.0         475798818.0
Wiener process for Thermostat # 3        1 F T T   8.9774137220556466E-02        3755061031.0        1753083868.0        1351179932.0         343881147.0        3312142877.0        1244557929.0        1015873554.0        1310354410.0        2249465273.0         994084013.0        2912484720.0        3876682925.0        1015873554.0        1310354410.0        2249465273.0         994084013.0        2912484720.0        3876682925.0
Wiener process for Thermostat # 4        1 F T T   2.1447125495896904E-01        2430503636.0         902227617.0        3039217662.0         205693714.0        2375800914.0        4220709598.0        2338701263.0        1119171942.0        2570676563.0         317077452.0        3194180850.0         618832124.0        2338701263.0        1119171942.0        2570676563.0         317077452.0        3194180850.0         618832124.0
Wiener process for Thermostat # 5        1 F T T  -7.4974817695318574E-01        3949927612.0        4293465109.0         224208328.0         677588237.0        2173092809.0        2514687022.0        1597262096.0        3906379055.0        3312112953.0        1016013135.0        4099474108.0         275305423.0        1597262096.0        3906379055.0        3312112953.0        1016013135.0        4099474108.0         275305423.0
Wiener process for Thermostat # 6        1 F T T  -2.3195632299180402E+00        4147399821.0         968438491.0         174961265.0         382156541.0        3672303660.0        2385050302.0          97147054.0        3131372450.0         829345164.0        3691032523.0        3006063034.0        4259826321.0          97147054.0        3131372450.0         829345164.0        3691032523.0        3006063034.0        4259826321.0
Wiener process for Thermostat # 7        1 F T T  -8.3038096976097500E-03        3725962017.0        3124905816.0        1692649901.0        3685368087.0         990134651.0        3321809881.0         796079799.0        2105258207.0         955365076.0        2923159030.0        4116632677.0        3067683584.0         796079799.0        2105258207.0         955365076.0        2923159030.0        4116632677.0        3067683584.0
Wiener process for Thermostat # 8        1 F T T   7.2955713326517235E-01        1426374835.0        1022225665.0        3431852557.0        2945126969.0        1347790872.0        2047858768.0        3281794178.0        2616230133.0        1457051261.0        2762791137.0        2480527362.0        2282316169.0        3281794178.0        2616230133.0        1457051261.0        2762791137.0        2480527362.0        2282316169.0
Wiener process for Thermostat # 9        1 F T T  -8.3876742673612970E-01        3633457436.0         863053678.0         665967915.0         928783000.0        4027924725.0        3556250224.0        3777646647.0        1837464056.0        4204654757.0         664239048.0        4190510072.0        2959195122.0        3777646647.0        1837464056.0        4204654757.0         664239048.0        4190510072.0        2959195122.0
Wiener process for Thermostat # 10       1 F T T  -6.7138423863751628E-01        3282585865.0         909372753.0         488063086.0        2442536289.0         174422437.0         477575080.0        4215590817.0        3862461878.0        1087200967.0        1544910132.0         936383720.0        1611370123.0        4215590817.0        3862461878.0        1087200967.0        1544910132.0         936383720.0        1611370123.0
Wiener process for Thermostat # 11       1 F T T  -7.2169956836733329E-02        3039538231.0          25912629.0        1608189467.0        1823124278.0        2331127605.0        2449500504.0        1683636369.0         362165168.0         814316280.0         869382050.0         980203903.0        2062101717.0        1683636369.0         362165168.0         814316280.0         869382050.0         980203903.0        2062101717.0
Wiener process for Thermostat # 12       1 F T T  -6.7722400494670465E-01        2762226669.0        4262778377.0        2250707948.0        3120407528.0        3704866228.0        1185520965.0         272317999.0         166758548.0         310112982.0         201045826.0        1680231254.0         118290799.0         272317999.0         166758548.0         310112982.0         201045826.0        1680231254.0         118290799.0
Wiener process for Thermostat # 13       1 F T T  -7.3817531449270457E-01        3689403510.0         367299738.0        3636386471.0        1925893934.0        3355800516.0        3520562622.0        2245755202.0        1652682525.0        2865544364.0         721509566.0         209733568.0         592362218.0        2245755202.0        1652682525.0        2865544364.0         721509566.0         209733568.0         592362218.0