 # Version information for this restart file 
 # current date 2023-12-18 19:35:55.557
 # current working dir /scratch/mj3313/comp-lab-class-2023/Week12/Runs/Proton
 # Program compiled at                              Sat Dec 12 18:27:15 EST 2020
 # Program compiled on                                         cs001.nyu.cluster
 # Program compiled for                                                nyu-intel
 # Source code revision number                                       git:8c64c6e
 &GLOBAL
   PRINT_LEVEL  LOW
   PROJECT_NAME proton_aimd_1ns_every0.5fs
   RUN_TYPE  MD
   WALLTIME 21600
 &END GLOBAL
 &MOTION
   &GEO_OPT
     OPTIMIZER  BFGS
     MAX_ITER  100
     MAX_DR     3.0000000000000001E-03
     &BFGS
     &END BFGS
   &END GEO_OPT
   &MD
     ENSEMBLE  NVT
     STEPS  2000
     TIMESTEP     4.9999999999999994E-01
     STEP_START_VAL  500
     TIME_START_VAL     2.4999999999999795E+02
     ECONS_START_VAL    -1.1027999833048332E+03
     TEMPERATURE     3.0000000000000000E+02
     &THERMOSTAT
       TYPE  GLE
       REGION  MASSIVE
       &GLE
         NDIM  5
         A_SCALE     1.0000000000000000E+00
         A_LIST     1.8595758612559999E+02    2.7263853498399998E-01    1.1526100454610001E+01   -3.6414578262600003E+01 \
             2.3173375816020001E+02
         A_LIST    -2.7809524712060002E-01    8.5951591808710006E-05    7.2189048017650004E-01   -1.9844539343859999E-01 \
             4.2409257583420001E-01
         A_LIST    -1.4825808131210000E+01   -7.2189048017650004E-01    1.3590902121280000E+00    5.1498896280349999E+00 \
            -9.9949268450990001E+00
         A_LIST    -1.0372189126880000E+01    1.9844539343859999E-01   -5.1498896280349999E+00    2.6661910891169999E+01 \
             1.1507715495310000E+01
         A_LIST     2.1801346360420001E+02   -4.2409257583420001E-01    9.9949268450990001E+00   -1.1507715495310000E+01 \
             3.0958394565589998E+02
         &THERMOSTAT_ENERGY
              -3.3188303258463001E-03
              -1.1225726261189549E-04
              -5.0072305901168661E-04
               8.3564469716687520E-04
              -6.4063365914184987E-03
               6.8066858705484847E-04
              -2.8322107889109148E-03
              -2.8023843781186416E-03
               8.8102897113243386E-03
               2.2502723652959144E-03
               6.4965355997672353E-03
              -2.5852319001289188E-03
               3.1309048756168242E-03
              -8.4576296760392852E-04
              -3.5118345851099434E-04
              -3.5165573148829813E-03
               2.4327058992012303E-03
              -3.0832461662045809E-03
               4.3274854088788655E-03
              -5.9608609679098572E-04
               2.5776791506597636E-03
              -2.8266190798964144E-03
              -7.4407881353248076E-04
               1.4247350882277434E-03
              -4.1799173255804793E-03
              -5.4443941632403164E-04
              -2.7889454369290053E-03
               5.0862812536904009E-03
               2.4987379718769141E-04
               1.2753373795452525E-04
              -5.9157886638139439E-03
               4.2517915204795262E-03
               5.8476665201671911E-03
              -6.4602994580087127E-05
              -2.3544294692819843E-03
               4.9383193742881118E-03
              -6.8474058583614357E-04
              -1.9267322214772426E-04
               1.1226915711945913E-03
              -4.9647070975454184E-03
               3.6424971292438658E-03
               7.7121017802385893E-04
               3.5405654572323400E-03
               4.4498613832585120E-03
              -8.4940671031147868E-03
               4.8383684604299581E-03
              -2.7283815418538263E-03
               8.3365442930307700E-04
              -5.2304095349047395E-03
               1.8003007073958729E-03
              -2.3880218528446050E-04
              -2.9328205010484051E-03
               4.7506524965636177E-05
               9.1038156101162738E-04
              -5.0942292515521025E-03
               4.1097486465894824E-03
               1.6771645291589445E-04
              -7.0080602367352570E-04
               1.5763821369647077E-03
               4.6903034844956336E-03
              -2.2274920734547342E-03
               1.4582011592708540E-03
               3.6818922284022754E-03
               1.4391279186449809E-03
               7.8366022232200132E-05
               2.1483142402654474E-03
              -9.5354921540905478E-04
               3.9718650142238025E-03
               3.3503907697862846E-03
              -1.3745913658558336E-03
              -1.4030591066941237E-03
              -2.0877626210898358E-03
              -1.3614499382770423E-03
               1.6231820821463769E-03
              -3.7478275272324799E-03
              -4.5829393348716541E-03
               4.9808036905276895E-03
               6.4728836943140193E-05
               6.9756849469448188E-03
               5.2781008473810225E-04
              -4.3304711292559998E-03
              -1.5636617794540938E-03
               1.7834953717451598E-03
              -2.9982407937333654E-04
               2.4223825444681180E-03
               1.8846407727212070E-03
              -4.5299617001522486E-03
               3.4401908801610995E-03
               2.2932746938739710E-03
              -5.8684292124133106E-03
               4.9528491734641602E-03
              -5.9924328286916195E-03
               2.1150704142769566E-03
               4.1780840282428216E-03
              -4.6530329700801660E-03
               8.7377464771670622E-03
               5.8029688769748273E-03
               1.5066815226153058E-03
               1.8544551326478403E-03
               5.9109399430251315E-03
               1.3227396475371423E-03
              -2.7982705490733370E-03
               4.0605689796294068E-04
              -2.3655072560952260E-03
               2.0931981458876519E-03
              -1.4700460700184058E-03
               3.6885505409140853E-03
               3.1342331737003223E-05
               6.1647568055005642E-03
              -1.5481658946450080E-03
               3.4734555865242891E-03
              -5.8306762659485808E-04
               3.1282318229560731E-03
               1.9821795644094408E-03
               2.5172691378150779E-03
               4.6378015955598588E-03
              -6.8579377361110520E-03
               2.9540340656935152E-03
              -4.2670447166327473E-03
              -2.8022043915748796E-04
              -5.3378521321982763E-03
               3.7618254997357310E-03
               6.1960373948269391E-03
               5.3293410965517447E-04
              -7.0587847516394601E-03
              -1.7798472034140575E-03
               2.3070561900328170E-04
               4.5532203621980762E-04
               4.0273186574491518E-03
               2.4687726253704006E-03
              -4.1427721089752831E-03
               3.3912095546527704E-03
               3.3133889502466292E-03
               3.3828853004675184E-05
              -1.7127952572187498E-03
               1.5040192426832844E-03
              -3.3124175044316256E-03
              -4.4631175896580293E-04
              -3.6969220483429777E-05
              -6.3990178350778644E-03
               7.1338945014413520E-03
               4.5353021374664416E-03
               1.9898994119371760E-03
               8.3843528194078474E-04
               3.2018354328378052E-04
              -2.0492276624771823E-03
               5.0249693536054815E-03
              -3.0010125231937222E-03
              -4.5350897241567883E-04
               8.4475229445396729E-03
              -7.3761324697497899E-03
               1.1034416925640462E-03
               1.2237333163763640E-03
               5.9019464282801992E-04
               7.8157039045595022E-05
              -2.8893317389428416E-03
               1.5419042619369129E-03
              -3.5200144243507409E-03
              -3.0223408733409331E-03
               5.0936973089257343E-03
              -4.0510649715139154E-03
               1.3848271441043699E-03
              -1.6778028619025836E-04
              -1.2219439770241474E-03
               4.2646892751019762E-03
               6.8166715997476689E-03
               2.9885172481763419E-03
              -7.5538065591009241E-03
              -4.4843558589101650E-03
               3.4754953237528374E-03
               9.3611460929110687E-04
               4.9573102323777892E-03
              -4.7271493049583089E-04
              -3.8012955888537536E-03
               1.0300334671651023E-03
              -2.3603710527117204E-03
               3.8837498984728358E-03
              -1.4132304730288369E-03
               4.4904698015233967E-03
              -3.9622686005721880E-03
               1.7533217969175137E-03
               5.6974036467910662E-03
               2.7186533735943368E-02
              -5.9457860977177278E-03
               1.5985698691470829E-04
              -4.7540089993819412E-04
               4.9730762186926862E-03
              -4.6852183012071778E-03
              -2.1714932726968959E-03
              -2.8280703696324022E-03
              -4.6005353422890730E-05
               1.4548148857344392E-03
              -2.8665482769932370E-03
              -5.0182204421658598E-03
               2.0282191899016187E-03
               2.3530854096831862E-03
              -4.4352518706536285E-03
               3.6052536019942844E-04
               1.8552323410038821E-04
               4.9350834839666314E-03
               1.2172226253113075E-03
               2.2192152926757401E-03
               1.9596843397101812E-03
               3.0874325678372809E-03
              -6.5752123101057453E-03
              -6.4265550006158472E-03
               3.2289287404809771E-03
               7.6808646980881757E-04
              -9.5707260228987054E-03
               8.9489504121113613E-03
              -1.3026874220989574E-03
               1.3283566812494142E-04
               6.9438831937715956E-03
               3.9537037660105990E-03
              -7.8367648601744451E-03
               7.2616480004582609E-03
              -2.1614648286617856E-03
               8.1684862959047200E-04
              -3.6386147237993248E-03
               4.3477139444634638E-04
              -1.5242180768400061E-03
               1.2592310388467940E-04
              -1.3276724444335375E-03
               3.6426690110463213E-04
              -2.5284882111569575E-03
               7.1305384611809318E-04
               8.7036967749375290E-04
               1.8482710420017679E-04
              -2.9982973845999309E-03
              -5.5113201714808836E-04
              -1.9212604890571025E-03
               5.7062693890132018E-03
               5.3691212795968935E-03
              -3.4685046731100884E-03
              -5.8184364798136872E-04
               1.4982486760428616E-03
              -3.4733582247069030E-03
               2.3214400991914312E-03
               1.0451696669121740E-03
               1.4525123493664641E-04
              -2.3863147257777778E-03
               1.5851534526816716E-03
               1.4654210329724674E-03
              -7.8072935131086579E-04
              -3.9235253437814553E-03
              -2.1175843408786591E-03
               2.0616747143930594E-04
              -3.4792711157758246E-03
              -3.0257717510976154E-04
              -3.7060877230932947E-03
              -3.5901884690124272E-04
               2.1001342580727481E-03
              -3.8572159375138103E-03
              -1.2723103197045901E-03
               6.0336718949714476E-03
              -2.5466156872277941E-03
              -1.3255857097873359E-03
              -1.0217032720146518E-03
               2.2425093341474784E-04
              -2.2495129238447411E-03
               2.7934113874732622E-03
               3.8551835889968303E-03
               3.8448474839709148E-03
              -2.9596381757326684E-04
               4.0836826276559046E-03
              -1.3730574218088392E-03
              -3.2175497996169552E-03
               2.5256196837485602E-03
              -3.6696723202897675E-03
               3.4330988868664898E-03
               6.1087270019435458E-04
              -7.1314295602240120E-03
               4.8335327217345573E-03
              -9.5366429737965720E-05
              -2.7873090845872985E-03
              -2.1371382351250282E-03
              -2.5286408313568653E-03
               6.8622198764510959E-03
              -8.8637173723483758E-04
               4.5283309160363769E-04
              -4.4118641913917971E-03
              -4.8651622711782415E-03
               1.4177270780381633E-03
               5.3905449684980029E-03
               5.6729990102896970E-04
              -3.6505456811665874E-03
               5.7957495929999592E-03
              -5.8620864467882495E-03
               1.0689614410429363E-03
              -2.7201489298729360E-04
               6.5368821742390719E-03
              -4.8116850779221336E-05
               2.1698775259464055E-03
               6.9693242931807777E-04
               1.3439995618449936E-04
               8.1200644074670286E-03
              -8.0405608675796804E-03
               3.5169463015248415E-03
              -6.1507831660340346E-05
              -2.0503062996401261E-03
              -2.7553462932100974E-03
               2.3468095119300362E-03
               2.7827783567131751E-03
               6.7819257417946069E-03
               1.8400162623551119E-03
              -1.5997955087754393E-03
              -4.3118935425931690E-03
               3.1656573119378745E-03
               1.5518782578329132E-03
               1.9173222157926623E-04
              -7.3100150058116084E-04
              -2.7985955313489042E-03
               2.0864771308855418E-03
               1.4667643607592174E-03
              -9.1801762454038569E-05
              -2.0819056474792332E-03
              -4.1909378623713406E-03
               3.8258289043944771E-03
              -6.5563839303825998E-04
               3.0060927678263270E-03
               2.4467738646168856E-03
              -2.4406721089958693E-03
              -7.2234278673162771E-04
              -4.6005785405250268E-03
               1.5087011144856498E-03
               2.2374533343328382E-03
               3.1068481637823728E-03
               1.0337920897413395E-03
               1.1308237282471047E-03
              -1.1212819299060259E-03
              -2.5667712299873883E-03
               1.8041183675997165E-04
               2.6197410737242347E-03
               5.7005664250965073E-03
              -1.5093270222153912E-03
               1.4754888630298614E-03
               2.7193239196422639E-03
               8.4137065287988625E-04
               2.8034810332469608E-03
               4.6556477110086848E-03
               1.5949485097300131E-06
               2.4483375460563668E-04
               2.1916756764063638E-03
               1.0042068225990762E-03
              -1.0013585210284837E-03
               1.1451662293271399E-03
               1.1200646971306295E-03
              -2.4533168433398264E-03
               1.8370343168264583E-03
              -4.9844013250743748E-03
               7.5563817307015293E-04
               2.5733872414497104E-03
              -2.3955400602080764E-04
               5.1496509427025969E-03
              -2.9816963111643714E-03
               1.3322349505942045E-03
              -2.0158162585459131E-03
               3.5715500166516082E-03
              -1.2005570778123443E-03
              -5.4434887565869821E-03
               3.2285903579660686E-03
              -3.5264458630717577E-03
               8.4590504063753163E-03
               3.3177904467746881E-03
              -1.9030250904523765E-04
               6.6075719457116180E-04
               8.3731280186090540E-03
              -5.6118280302209405E-04
              -1.1186225266225825E-02
               6.7568023290277249E-04
              -3.5226892747610029E-03
              -1.5098031193526047E-03
               1.5353637682148410E-03
              -2.6413236442360622E-03
              -2.3101742675870249E-03
               4.6566496850375064E-03
              -4.8441660658052246E-03
              -6.3391160964247082E-03
               6.1711128696159180E-04
               2.8255894973598507E-03
               6.8853279572382488E-04
               2.1542263861994287E-03
              -3.7690731707456797E-03
              -2.9810229128699552E-03
              -8.5261908648564025E-04
              -3.5314574170318821E-03
               6.4020355968581561E-03
              -2.6005879510514196E-04
               6.2835056054182849E-03
              -7.7151011250785404E-04
               6.2746539507234280E-04
               2.5991465466631857E-03
              -7.0338444798850311E-04
              -6.4369777192636833E-03
               1.2767428830258031E-03
               3.9125898542258040E-03
               4.3854830266080187E-03
               3.3211729826007727E-04
              -5.2952680417982988E-05
              -2.9890485424580561E-03
              -2.8685392452340013E-03
               3.4964593552129219E-03
               5.9646401988079339E-03
               2.1375152507993119E-03
              -5.0433991131325455E-03
              -1.8036527888403472E-03
               2.4678263932230099E-03
              -7.5002886320346789E-03
              -3.2686915768715932E-03
               1.8462390108194061E-03
               6.0049663401035643E-04
               1.5037932354408667E-04
              -6.3317916794550320E-04
              -4.9895186361215366E-03
              -1.0605764736192310E-03
               5.4207212294507820E-03
              -2.7827779334307500E-03
               6.9337473479892794E-04
              -7.0092456702913395E-04
              -1.0372354810635519E-03
               2.7543200239163847E-04
              -1.8868506204889682E-03
              -4.8680651519843074E-04
               3.5998089925272733E-04
               3.4123451147689078E-04
              -3.0066084753413956E-04
               1.7887227821494710E-03
              -5.0532337724821814E-03
               5.1326889657991783E-04
               7.3937866961021927E-03
              -8.1611466075435656E-04
              -2.0514472985456032E-03
              -3.7593782368779780E-03
              -2.9170464035706643E-03
               4.3988717495186307E-03
               3.4604323193344042E-03
              -2.8120715563234241E-04
              -9.8455295772657196E-04
              -1.2150776542452426E-03
              -1.4467437141501175E-04
               8.0801280558132783E-03
              -1.6987228412464013E-03
              -2.1813404508609999E-03
               2.8210011673272606E-03
               3.2973371688959667E-03
               6.4047648468097251E-03
               4.7341994046664363E-03
              -1.9610647475715292E-03
              -1.9479998855092225E-03
              -1.0143669688545088E-03
              -3.0616499891663812E-03
              -7.3893545657135818E-03
               4.5371378820226790E-03
              -2.7364560048181720E-04
              -1.4285119956870826E-03
              -2.9266574479400358E-03
               1.0545828304617728E-03
              -3.0383153048878413E-03
               1.5548939613724525E-03
               1.7223121196097667E-03
              -7.4192417796579903E-04
               3.8297625594110644E-03
              -2.9744131092191870E-03
              -2.8696966548231962E-04
               5.5008871798887813E-03
               4.5768757854951023E-03
              -4.1849403711036711E-03
              -2.2746869924358433E-03
              -8.4230137540596407E-04
               2.9302321066899161E-03
              -2.8095884245428401E-03
              -7.1811406715382629E-04
               3.2986433203627064E-03
              -5.9639649249638516E-04
              -1.3875727182577344E-03
               5.0112185315690349E-03
              -6.7833420514601449E-04
               9.6775124952946110E-04
              -6.0787185729030916E-03
               2.1620099154466815E-03
               1.9713376625817862E-04
               6.0042597135166579E-04
               1.6589674640137171E-03
               2.7437184839135273E-03
               4.6389345015446497E-04
              -1.3202885345866015E-03
              -5.0112075779045412E-03
              -4.2276644574662627E-03
               4.7981945345358587E-03
               1.6918502059805167E-04
              -9.5549907397113559E-04
               2.6221643370840878E-03
              -1.2425007850666433E-03
              -4.4112495877958414E-03
               2.6720731612825455E-03
              -7.1322937047303995E-03
               6.7604793441224291E-03
               5.9819072742051628E-03
               4.6100579227202395E-03
               2.0315253032774537E-03
               1.3990813500251659E-03
              -1.5586455138265607E-03
              -8.4490501905861212E-03
               6.7112071177733877E-03
              -2.9546583603886666E-03
              -6.9583531698460552E-03
               2.0487375986309657E-03
               4.5232772027869739E-03
               1.8903212845317874E-03
               1.8459304520315766E-03
               2.9442490662733808E-03
               1.9581793998008436E-05
              -2.5961762522542873E-03
              -7.2554479191204481E-03
               4.0079109723878794E-03
               1.8091951744192330E-03
              -2.1162862539389317E-03
               3.6814738381864415E-03
               5.0397686356395514E-03
              -4.6269625157021165E-03
              -9.4757588993837980E-04
               1.4451448426024921E-03
               2.9220089465633843E-03
              -2.3970597441400369E-03
              -3.4774556035538189E-03
               5.0903775867194856E-04
               4.9007928374658703E-04
               7.6661125512186086E-04
               4.6362595600522539E-03
               3.8107443916770524E-03
              -3.4468516300816773E-03
              -2.3292101935430947E-03
               1.0473499709198716E-03
              -4.8916147262752802E-03
               2.7011119882592461E-03
               3.0908341177002763E-05
              -7.2289654917368247E-05
               1.0112454429211356E-03
               2.2588308696809820E-03
              -1.9685877614715247E-05
               1.4241221347331076E-03
              -2.8267653194945480E-04
              -3.5188282403702253E-03
               9.6348098793457276E-04
               2.9221564405782340E-03
              -1.5987591641768216E-03
              -2.8106364498259335E-03
               8.7428991114438161E-04
               6.6870119372276155E-03
               3.1705799941003834E-03
              -9.0478606789687333E-03
              -1.8755429735173143E-03
              -4.0802421084786819E-04
              -4.8268831432879877E-04
              -1.9495161517203697E-03
              -8.4505494142039020E-03
               4.2147367675521015E-04
              -4.5616938589739062E-04
               8.0530899657352863E-03
               1.7034839951254610E-03
               5.0441949378734682E-03
              -4.0663903062843992E-04
              -1.9472437552538317E-03
               1.2053794357241654E-03
              -7.8391930787362275E-04
               6.5758326364892738E-03
              -7.6255981020745571E-03
              -3.0594875020928678E-03
               5.5415188083714206E-03
              -5.9176256478084962E-03
               6.8239762963544692E-04
              -4.7718518549942704E-03
              -2.6588397700526914E-03
              -2.9093020372312956E-03
               3.9225959454285966E-03
              -1.8527446039578251E-03
               1.9134195030061955E-03
               9.1695758217971886E-03
              -2.8719077109397779E-03
         &END THERMOSTAT_ENERGY
         &RNG_INIT
Wiener process for Thermostat # 1        1 F T T  -1.5505429657892764E+00         661802595.0        2026459976.0        3136775027.0        3268219721.0        1056216878.0        3744216088.0             12345.0             12345.0             12345.0             12345.0             12345.0             12345.0             12345.0             12345.0             12345.0             12345.0             12345.0             12345.0
Wiener process for Thermostat # 2        1 F T T   1.5766939834860993E-01        2521559082.0        1979391111.0        3972826820.0        2839528192.0        3960449033.0        3051881342.0        3692455944.0        1366884236.0        2968912127.0         335948734.0        4161675175.0         475798818.0        3692455944.0        1366884236.0        2968912127.0         335948734.0        4161675175.0         475798818.0
Wiener process for Thermostat # 3        1 F T T  -1.6802103653762466E+00        2464096834.0        3454226368.0         668358963.0        3607867155.0        2139338144.0        1695442074.0        1015873554.0        1310354410.0        2249465273.0         994084013.0        2912484720.0        3876682925.0        1015873554.0        1310354410.0        2249465273.0         994084013.0        2912484720.0        3876682925.0
Wiener process for Thermostat # 4        1 F T T  -9.2120442907176847E-01        3007810664.0         626544053.0           5688727.0        2019501767.0        4050809287.0        2188826537.0        2338701263.0        1119171942.0        2570676563.0         317077452.0        3194180850.0         618832124.0        2338701263.0        1119171942.0        2570676563.0         317077452.0        3194180850.0         618832124.0
Wiener process for Thermostat # 5        1 F T T   1.9586792436148486E+00        3119398129.0        2238966874.0        1731687009.0        1729823850.0        3912388439.0         182524877.0        1597262096.0        3906379055.0        3312112953.0        1016013135.0        4099474108.0         275305423.0        1597262096.0        3906379055.0        3312112953.0        1016013135.0        4099474108.0         275305423.0
Wiener process for Thermostat # 6        1 F T T  -2.2012851380256623E-01         527820745.0        2447393615.0         338698828.0         653439858.0         976211817.0        3944196308.0          97147054.0        3131372450.0         829345164.0        3691032523.0        3006063034.0        4259826321.0          97147054.0        3131372450.0         829345164.0        3691032523.0        3006063034.0        4259826321.0
Wiener process for Thermostat # 7        1 F T T  -1.2191095662093037E-02         167278661.0        2992638024.0        1197931920.0         124710794.0         889033703.0        2194094787.0         796079799.0        2105258207.0         955365076.0        2923159030.0        4116632677.0        3067683584.0         796079799.0        2105258207.0         955365076.0        2923159030.0        4116632677.0        3067683584.0
Wiener process for Thermostat # 8        1 F T T  -2.6373530393371375E-01        2923147749.0        3809475671.0         892364519.0        3114385888.0        3523415917.0        3402922821.0        3281794178.0        2616230133.0        1457051261.0        2762791137.0        2480527362.0        2282316169.0        3281794178.0        2616230133.0        1457051261.0        2762791137.0        2480527362.0        2282316169.0
Wiener process for Thermostat # 9        1 F T T  -1.2388913960989989E+00         276694386.0        3384434371.0        2194062143.0        3864498526.0        2498625561.0        4174179731.0        3777646647.0        1837464056.0        4204654757.0         664239048.0        4190510072.0        2959195122.0        3777646647.0        1837464056.0        4204654757.0         664239048.0        4190510072.0        2959195122.0
Wiener process for Thermostat # 10       1 F T T  -6.9271884074884071E-01         298842605.0        4183294382.0        3769908432.0        1623977651.0        3452521187.0         349927101.0        4215590817.0        3862461878.0        1087200967.0        1544910132.0         936383720.0        1611370123.0        4215590817.0        3862461878.0        1087200967.0        1544910132.0         936383720.0        1611370123.0
Wiener process for Thermostat # 11       1 F T T  -3.9199517781213300E-01        1183014876.0        2469777470.0        2706060047.0        1374668043.0         490283634.0         131761905.0        1683636369.0         362165168.0         814316280.0         869382050.0         980203903.0        2062101717.0        1683636369.0         362165168.0         814316280.0         869382050.0         980203903.0        2062101717.0
Wiener process for Thermostat # 12       1 F T T   1.2248374085476998E+00         744312290.0        1838623065.0        1895433531.0        2930723882.0        3034111406.0        1223209339.0         272317999.0         166758548.0         310112982.0         201045826.0        1680231254.0         118290799.0         272317999.0         166758548.0         310112982.0         201045826.0        1680231254.0         118290799.0
Wiener process for Thermostat # 13       1 F T T   1.6053528300026945E-02         341235087.0         365462780.0         607175623.0        3292057964.0        1611524565.0         256574977.0        2245755202.0        1652682525.0        2865544364.0         721509566.0         209733568.0         592362218.0        2245755202.0        1652682525.0        2865544364.0         721509566.0         209733568.0         592362218.0