 # Version information for this restart file 
 # current date 2023-12-18 23:19:03.369
 # current working dir /scratch/mj3313/comp-lab-class-2023/Week12/Runs/Proton
 # Program compiled at                              Sat Dec 12 18:27:15 EST 2020
 # Program compiled on                                         cs001.nyu.cluster
 # Program compiled for                                                nyu-intel
 # Source code revision number                                       git:8c64c6e
 &GLOBAL
   PRINT_LEVEL  LOW
   PROJECT_NAME proton_aimd_1ns_every0.5fs
   RUN_TYPE  MD
   WALLTIME 21600
 &END GLOBAL
 &MOTION
   &GEO_OPT
     OPTIMIZER  BFGS
     MAX_ITER  100
     MAX_DR     3.0000000000000001E-03
     &BFGS
     &END BFGS
   &END GEO_OPT
   &MD
     ENSEMBLE  NVT
     STEPS  2000
     TIMESTEP     4.9999999999999994E-01
     STEP_START_VAL  1998
     TIME_START_VAL     9.9899999999998238E+02
     ECONS_START_VAL    -1.1027999833048332E+03
     TEMPERATURE     3.0000000000000000E+02
     &THERMOSTAT
       TYPE  GLE
       REGION  MASSIVE
       &GLE
         NDIM  5
         A_SCALE     1.0000000000000000E+00
         A_LIST     1.8595758612559999E+02    2.7263853498399998E-01    1.1526100454610001E+01   -3.6414578262600003E+01 \
             2.3173375816020001E+02
         A_LIST    -2.7809524712060002E-01    8.5951591808710006E-05    7.2189048017650004E-01   -1.9844539343859999E-01 \
             4.2409257583420001E-01
         A_LIST    -1.4825808131210000E+01   -7.2189048017650004E-01    1.3590902121280000E+00    5.1498896280349999E+00 \
            -9.9949268450990001E+00
         A_LIST    -1.0372189126880000E+01    1.9844539343859999E-01   -5.1498896280349999E+00    2.6661910891169999E+01 \
             1.1507715495310000E+01
         A_LIST     2.1801346360420001E+02   -4.2409257583420001E-01    9.9949268450990001E+00   -1.1507715495310000E+01 \
             3.0958394565589998E+02
         &THERMOSTAT_ENERGY
               1.1283231221551351E-03
               4.0253640621382676E-03
              -1.0778355689230142E-03
               1.5603811023753144E-03
              -1.0536672782839630E-02
              -9.1816187648099913E-04
              -7.2664116961240225E-03
              -2.0476897923170839E-04
               1.0694059358353537E-02
               2.1096241321393915E-03
               1.1041559303537911E-02
              -1.4800116480855414E-03
              -7.5028235241036715E-03
               1.1056150008183535E-03
               2.4670610818265334E-03
              -9.4102117255715073E-03
               8.8625644700906676E-03
              -8.2199536866632908E-03
               2.2665052228553389E-04
               4.6699613148044172E-03
               5.9897845581427479E-04
               1.2942429857850954E-02
              -5.4605790441108592E-03
              -3.5813108912970274E-03
              -2.5087815314688913E-03
              -9.5149928293665354E-03
              -1.7965495596875037E-03
              -6.9050179662764064E-04
               5.0245036094499502E-04
               4.8536648205901103E-03
              -6.0295375476115843E-03
              -2.4260710862518001E-03
               8.3932263952034725E-03
              -3.7590649125056694E-03
              -1.9631536073498488E-03
               9.4850807225301554E-03
               3.3029328045085112E-03
              -6.7814274933628666E-03
               3.7678334063267127E-04
               2.3498449474875375E-03
               1.0344754470869988E-02
              -1.4182654518729526E-02
               5.6172853268405161E-03
               7.0769206630343813E-03
              -6.5028039751287314E-04
               4.3193095544254781E-03
              -7.5579170088716082E-03
              -1.7881416599253868E-04
               6.6891469743790410E-03
               4.5352622802583079E-03
              -1.8260574054919435E-03
               3.7366915813808322E-03
              -1.1145755977879817E-02
              -8.2764372654754031E-03
              -8.9172208792159813E-03
               6.4445564441365294E-03
               1.4417895893129391E-03
              -2.2037471351379193E-03
               4.7555063489853246E-03
               5.7732608247730681E-03
              -8.1451742728060202E-04
              -3.0584223632672590E-03
               1.6278546965757489E-02
              -2.3799640908613293E-03
               4.4857072307919474E-03
               5.4730490964382634E-03
              -3.5319917388843512E-03
               4.9222827445354568E-03
               5.8401295622577563E-03
              -3.4774464193052788E-03
              -1.2251157223565156E-02
              -4.7080784444928150E-03
              -1.0833847016320551E-03
               1.8915216383686912E-03
              -5.5341169676304137E-03
              -4.7497291863350839E-03
               8.5512386722195917E-03
              -8.9767289983151959E-03
               1.0677356517193402E-02
              -8.8373868973561347E-04
               4.8609269718736907E-03
              -5.1381589410644177E-03
               3.9609502945426380E-04
              -1.7228704842651342E-04
               1.3466278824896750E-02
              -5.3357370649208709E-03
               3.5669960581516012E-04
               2.9606499550960440E-03
              -3.3759193682387047E-04
              -5.5717722009511290E-03
               2.4363838415317951E-03
              -1.2923605981794763E-02
               4.2472059092689167E-03
              -5.0703705653125930E-03
              -3.1896735878225650E-03
               9.1613093591662829E-03
               1.0661363519308031E-02
              -1.0711695469979113E-04
               6.7067550341493908E-03
               4.7408193384733208E-03
              -5.4372479501650214E-03
              -1.5088718545127177E-03
               8.1235167584261508E-03
              -1.5299643296618095E-03
               3.0617645510794605E-03
               1.0014005596413158E-02
               6.9730453719284869E-03
              -4.9783103433500720E-03
               5.7964793357783047E-03
               1.8076253098706736E-04
               1.9002167695629138E-03
               4.1481660365892308E-03
               1.8112507584457350E-03
               1.1645895507642716E-02
               5.5301680152968317E-03
              -4.4165430866579614E-03
              -4.6055444096278642E-03
               8.0022760389376144E-03
              -4.0405357688582397E-03
              -6.3218055048961863E-03
              -2.0452833522800586E-03
               2.9508255343211696E-03
               6.2011785818164526E-03
               4.2905417360114004E-03
              -8.8882086094165362E-03
              -3.0818470514080913E-03
               3.7029972247813333E-03
              -4.7179352080395391E-03
               6.9320062150167693E-03
              -4.8080857577655640E-03
               2.7518804482997952E-03
               1.1965047462925708E-02
              -4.8070722633467653E-03
               1.8991798209041033E-03
              -4.6691298937496534E-03
               2.8815986311219620E-03
               8.3086247461966706E-04
              -8.4278013746000441E-03
               9.8946711576834625E-04
              -3.4068632997465067E-03
               6.5408357652054815E-03
               7.1119030039829686E-03
               3.9468480078178525E-03
              -5.7953468739514171E-03
              -5.9678472466433751E-03
              -4.9223276255979981E-04
               1.1714986369036990E-02
               3.0428299087415403E-03
              -2.0114382152753630E-03
               6.3042515606752036E-03
              -1.5362370587197999E-02
               6.9267114141683362E-03
              -1.9953085999064890E-03
              -1.1689775895857063E-03
               6.0243049771485438E-03
               2.2085359075390380E-03
               5.0271952580031778E-04
              -3.4262938377900708E-03
              -8.8912128568122244E-03
               6.3643476884047813E-03
               3.4932465479549238E-03
              -4.1185320891222038E-03
              -4.6777905962291488E-03
               2.0658875849992749E-03
               1.2329705948853218E-02
               6.8390968951450807E-03
               5.0669343797327196E-03
              -1.8090996481998068E-02
              -6.5625531020043078E-04
              -1.6613078116497267E-04
              -4.4252432394645009E-03
              -1.2915889949862945E-03
               2.3532914216400098E-03
              -4.6442414889821546E-03
              -6.6901223506762803E-03
              -2.4105683936867816E-03
               7.9505818968237350E-03
               4.8650146863577614E-03
              -4.6539749673124619E-03
               3.4267028734056675E-03
               1.2187934719956324E-03
               1.6706893735418348E-02
               3.0914051889306585E-02
              -6.9248832689692780E-03
              -2.5759576621189228E-04
              -8.7278494842729279E-04
               1.0312255164952365E-02
              -1.0321248094858943E-03
              -9.9336322843178483E-03
              -1.3734156736577251E-03
              -3.3976516229177567E-03
               2.0357722562542848E-04
               4.7902105012097790E-03
              -4.8204464230561733E-04
               6.3139795985426629E-04
               1.0328729566955021E-02
              -4.1112823638195404E-03
              -3.0210975297099651E-03
              -1.1996185819586058E-02
               2.0380339506161265E-03
               3.9765172946411194E-03
               5.0544614441583998E-03
               2.6860697261327816E-03
               6.4942113068245473E-03
              -8.6277140155597929E-03
              -1.1058325149640797E-02
               1.0594425218792128E-02
               5.7396437000941485E-03
              -8.7307143432715697E-03
               5.7968649887449927E-03
              -2.2239573197288297E-03
               5.0288450892132933E-05
               1.7056693976654077E-03
               9.4235957449261328E-03
              -1.2992595470312212E-03
               2.0464978905161708E-03
              -6.6764432323385197E-03
               8.3349583732166103E-03
              -4.4077772848037699E-03
               3.8198400176019756E-03
               1.0212408198964720E-03
              -3.6939568888871861E-03
              -1.6487524937641291E-02
               1.2180669123481742E-02
               1.0163069195690337E-02
              -5.2613635998843868E-03
              -6.1412672473429167E-03
               6.4522587863846226E-04
               2.7807567917578955E-03
               2.4031347728670407E-03
              -7.4437068618147953E-03
               3.9192939473925220E-03
               1.0759713081817592E-02
               1.5251256115024309E-03
              -2.1980004012204877E-03
              -2.8302576698479489E-03
              -5.4016234385060730E-03
               1.8400170082529701E-03
              -3.2466923417300607E-03
              -2.4808664453011679E-03
               7.8542217398577252E-03
               8.9616497442745087E-03
              -1.2184039510917386E-03
               1.7710067225856581E-03
              -4.6104867085701440E-03
              -1.0258815126806726E-03
              -8.8219905459010562E-06
               6.9617318410384558E-04
              -3.0143603484283181E-03
              -5.5642359667098544E-03
               1.5110753058161635E-02
              -3.8482224935645977E-03
              -1.1441216063791020E-02
              -4.7095543888848682E-03
               4.8562003196619035E-03
              -5.0769279262849187E-03
               1.4953407097996624E-03
               1.0904339091276859E-03
              -6.7692765027236295E-03
              -2.9446608878257842E-03
               6.8726907603975851E-03
               7.2047390794946166E-03
               5.9264344125317869E-03
              -6.2988790554405110E-03
               6.8106166378867905E-03
              -7.4710486108257278E-03
              -9.3974028061119010E-04
               5.9798554524886612E-03
              -2.1010780482525965E-03
               3.1097274521285677E-03
               9.0706513684710565E-03
              -1.3615349137265153E-02
               9.2543650407576998E-03
               8.5799861791598288E-03
               2.2856545535464585E-03
               8.3090724450672474E-04
              -1.8658764277345724E-02
               1.5437967151138557E-02
              -3.6996130486365701E-03
               5.1694191952789065E-03
              -1.7813573629716129E-02
              -6.4073629093526832E-03
              -3.6176095387302622E-03
              -8.7979688862081806E-04
              -3.9833947505314785E-03
              -4.4251239356576447E-03
              -5.1476770425817669E-04
              -4.3013345284993792E-03
               2.1354240468135209E-03
               2.6402710264145355E-03
               8.2930341668603861E-03
              -2.8869739053177862E-03
              -4.1388902905581301E-04
              -3.1909242278179714E-03
              -4.6554219591414866E-03
               8.6649646926393216E-03
              -1.8032525053897038E-03
               2.1295664820185231E-02
              -3.7423852407715849E-03
              -6.9203784339967227E-03
               1.8740990849875764E-03
              -3.1951526233752392E-03
               6.3256708846640948E-03
               1.4514314514046641E-02
               4.7856649299392370E-03
              -1.1127122578499501E-02
               6.0994972351710152E-03
               8.7059544683386718E-03
              -3.9031586953449785E-03
               1.1457609951118917E-02
               2.3073814542914554E-03
              -3.3603222936476724E-03
              -1.5535685545449629E-03
               2.1440954284208573E-03
              -1.8212181861263566E-03
               2.5286358611332940E-04
              -4.1409351792921793E-03
               1.2005524402901587E-04
              -1.5999402617190756E-02
              -3.3160166760481482E-03
               4.0072863257440017E-03
               1.9438633643183089E-03
               7.1424461222999143E-03
               3.5821732955118764E-03
              -7.3120279238259858E-03
               1.7638322266033360E-02
               1.1695084830782162E-03
               2.7000186829652505E-03
              -3.6240385252424528E-04
               7.5380197180233109E-03
              -1.3954743599671264E-02
               3.2541315741112958E-03
               2.9057030403309130E-03
              -3.5229081408670372E-03
               5.0467537572609425E-03
              -2.9573337524077680E-03
               1.2398214709897861E-03
               2.3778089678259469E-03
               5.4377565469196660E-03
               1.6958386527027556E-03
              -5.6669721258913175E-03
              -3.5452038073083775E-03
               2.8456681532060490E-03
               1.7005097021047442E-02
              -6.6707652874831861E-03
               4.5062920932029977E-03
               6.9918127643940091E-03
              -1.3555311821022339E-02
               6.6978868464462778E-03
              -1.6001985389055664E-03
               1.3362426830482708E-04
               4.7380204218795911E-03
              -9.2595499449475132E-03
               9.6634874452231866E-03
              -2.3563614962769405E-03
              -2.1920778792272537E-03
               6.9545456125943437E-03
              -3.5780640658191099E-03
              -1.5007649110755028E-02
               3.3980478956534776E-03
               5.7056723618881093E-04
              -7.6954510645659210E-03
               1.9925844364612724E-02
               2.4698870278246346E-03
              -1.5466016807388027E-03
              -3.3243545347632878E-03
               1.2806650604169115E-02
              -4.3494292808745217E-03
              -1.0699278974204704E-02
              -5.3058543476448838E-03
               7.9054490367503911E-03
               5.1089876261685941E-03
               3.1442469793807825E-03
              -7.1293580720735092E-03
               2.9575896736375256E-03
               4.0996891681959998E-03
              -1.4081661433249308E-02
              -1.4818860132615448E-02
               2.0244191656041332E-03
               8.3207175764587193E-03
               3.0160305782327211E-03
               3.5460665697912412E-03
              -2.1873905850203338E-03
              -2.5482623753342549E-03
              -7.0060490392024376E-03
              -9.5286559532600200E-03
               1.0217710307762274E-02
               1.1253602479908274E-02
               1.2186373043169252E-02
              -1.1200603319949366E-02
              -5.2691705248367410E-03
               7.5388094441806693E-03
               1.0568033905994235E-03
              -5.5030709999892577E-03
               1.1582666243689867E-02
              -8.2169033525009074E-04
               4.6734133844615108E-03
              -9.2923742098689963E-03
              -1.5174848166689264E-03
              -9.5756651224564887E-04
               2.0806212894844208E-03
               1.2653281365510938E-03
              -1.2338139703266732E-03
              -1.6314315591173239E-03
               4.9950563662117123E-03
              -9.7958468177756601E-03
               1.4522286157680255E-04
               7.7178862516336204E-03
              -6.1355178159636743E-03
              -3.1888931223504175E-03
               2.2525094383309863E-03
               1.1836465754471500E-04
              -5.1904736669617733E-03
               1.5691569747603867E-03
               3.3966021173185553E-03
               3.7414283062854837E-03
               4.0502939069475257E-03
              -2.3479788646112328E-04
              -1.2614200978264831E-03
               9.0182059088895258E-04
              -2.4348369247978946E-03
               8.0237433813162267E-03
              -2.7471291364927564E-03
              -9.7829445162553996E-03
               8.5361080566765685E-03
              -3.4579488445975388E-03
              -2.3252104238850129E-03
              -5.9782080954690212E-03
               2.9294484349572092E-04
              -8.6136034159446781E-04
              -1.2318181564500979E-03
              -7.0412395453736546E-03
              -1.9763230226790739E-02
               1.6263710800312792E-02
               1.4506032852093358E-02
               5.3060240210750127E-03
              -8.5159704505670692E-03
              -1.1614820491241023E-03
              -6.9945227626679188E-03
              -6.6412131906664210E-03
               3.6586950203278627E-03
               8.0268931730612027E-04
              -1.9884434171609762E-03
               7.8096979143193034E-03
               3.8586554450828346E-03
               9.5225326228227814E-03
               1.9002561542388065E-03
               1.4319567538802752E-02
               1.0420715483943337E-02
              -9.6603672522390348E-03
              -2.0654430701371397E-03
              -1.2337108217907507E-02
               1.0796879913728257E-02
               1.4341471072796545E-03
               2.4892312628009604E-03
              -3.8548435182671416E-03
              -1.4823252106996513E-02
              -2.1091453191471647E-02
               1.3078423126972313E-02
              -3.7361096604233966E-03
               1.7586202884910754E-02
               1.0056441026207055E-02
              -5.2752518551654921E-03
               6.2327232347796947E-03
               4.6544949114742410E-03
              -1.6266557356254234E-04
              -1.4503437872098131E-02
               3.2994220268240913E-03
               8.7751002170169731E-03
              -3.6714880223577238E-03
              -1.9289671437862710E-03
              -4.8375116050898958E-03
               3.2638789181815022E-03
              -4.0615782233146332E-04
              -2.0513627100329844E-03
               5.4879811236815739E-03
              -9.4956009604372002E-05
               2.3498616316314069E-03
               2.7481090600133613E-03
              -2.3316604098973519E-03
              -1.0282365273917820E-03
              -2.7351781599122037E-03
               7.6254337927474615E-03
               4.5729430880134979E-03
              -2.6679851415194393E-03
              -3.0568862082751822E-03
              -8.3438842673645135E-03
               3.4441962925900406E-04
               9.5204546176225358E-03
               3.4684911501543510E-03
               7.6802261098697583E-03
               5.0298864705124596E-03
               1.8153570921760776E-02
              -8.5922309836227936E-03
              -5.9807859929350178E-03
              -5.1284484695895624E-03
               5.2376306654748133E-03
              -3.6940757982678934E-03
               4.6854923163728883E-03
               6.9796222286883144E-03
               4.4669058227978144E-03
               7.2367522575180719E-03
              -1.8193348107593949E-02
               1.2840911598667772E-02
               4.8104727560388119E-03
              -1.2013878314062370E-02
              -4.9606998910130123E-03
               7.3446104160370300E-03
               8.2638613791715856E-03
               2.6359523096115677E-03
              -3.5818267861519532E-03
               1.3379633793908047E-02
              -4.7592686316899283E-03
              -4.0599613857533346E-03
               3.1717960213082982E-03
              -1.7788901743616858E-02
              -3.4814540690543383E-03
               6.5812414244671453E-03
               1.2837625219573761E-03
               3.5932158314887189E-03
              -1.7616808519614027E-02
              -1.5897377384004880E-03
               1.3567446285275238E-02
              -2.9855172476786845E-03
              -2.8118182668454295E-04
               6.7261455386209766E-04
              -2.2730699901219011E-03
              -1.7850286353559555E-03
               8.9638056206516152E-03
              -6.1741771694175307E-03
               5.1782420370978677E-03
               5.3064623680979407E-03
              -1.1031442329521328E-02
              -4.9111042637240924E-03
               7.9257155054474927E-04
              -1.5354925302532821E-03
              -1.3038848285198562E-03
              -6.1568901011097681E-03
              -5.7131385688670450E-03
               1.2324781608416119E-02
               6.6081440609346955E-03
              -1.6308319815268113E-03
              -2.3306803903561735E-03
               3.8861652430310630E-04
               7.0994799396891352E-03
              -1.0679687169774485E-02
               6.8314134903833994E-03
               1.5561465283859611E-04
               6.1428685352532420E-03
               1.2809931786857468E-03
              -5.4214492441327887E-03
              -6.1365933801124199E-03
              -2.5035967008927907E-03
              -4.4624229838009389E-03
               2.4680274386474381E-03
              -9.2564906350602787E-04
              -3.1791322491075530E-03
              -3.6869570311724381E-03
               1.2519520828084918E-02
              -8.8722033635005976E-04
              -2.1601883348866513E-03
               3.0845967286514740E-03
              -1.0960689352610578E-03
               5.7715995833928580E-03
              -5.8636808963228471E-03
              -7.1917026593075100E-03
               3.5350979990152204E-03
              -4.5730798127913506E-03
               1.2301638314050486E-03
               8.7153825983808534E-04
              -5.1133600678367162E-03
              -4.6514695307021863E-03
              -6.8447256333320650E-03
              -3.4649517529808356E-03
               2.4757019324955260E-03
               1.2603291220142957E-02
               1.4680703339835198E-02
               2.8598204207665916E-03
              -5.7642842389196060E-03
         &END THERMOSTAT_ENERGY
         &RNG_INIT
Wiener process for Thermostat # 1        1 F T T  -1.5601997779545997E+00        4027757407.0        1559045809.0        3403552754.0        1703120254.0         453778739.0        2861026355.0             12345.0             12345.0             12345.0             12345.0             12345.0             12345.0             12345.0             12345.0             12345.0             12345.0             12345.0             12345.0
Wiener process for Thermostat # 2        1 F T T  -4.0112764818655514E-02        3838101567.0        1430396723.0        1556923290.0        2889325561.0         607612135.0        3761282217.0        3692455944.0        1366884236.0        2968912127.0         335948734.0        4161675175.0         475798818.0        3692455944.0        1366884236.0        2968912127.0         335948734.0        4161675175.0         475798818.0
Wiener process for Thermostat # 3        1 F T T  -2.7485675335982579E-01         482699311.0        2506409672.0        1202736307.0        1073196783.0        1141297417.0        2856513754.0        1015873554.0        1310354410.0        2249465273.0         994084013.0        2912484720.0        3876682925.0        1015873554.0        1310354410.0        2249465273.0         994084013.0        2912484720.0        3876682925.0
Wiener process for Thermostat # 4        1 F T T  -9.8957058820594379E-01        3129827523.0        3549124345.0        1353678049.0        1344233659.0        2578763699.0        1106953444.0        2338701263.0        1119171942.0        2570676563.0         317077452.0        3194180850.0         618832124.0        2338701263.0        1119171942.0        2570676563.0         317077452.0        3194180850.0         618832124.0
Wiener process for Thermostat # 5        1 F T T   8.1743834600370391E-01         587879607.0         702838090.0         820286405.0        1159088393.0        1840431053.0        2379049004.0        1597262096.0        3906379055.0        3312112953.0        1016013135.0        4099474108.0         275305423.0        1597262096.0        3906379055.0        3312112953.0        1016013135.0        4099474108.0         275305423.0
Wiener process for Thermostat # 6        1 F T T  -4.6635220676026440E-01        1255338812.0        2941627828.0        2767710176.0        1701464963.0        2824905014.0        2257709657.0          97147054.0        3131372450.0         829345164.0        3691032523.0        3006063034.0        4259826321.0          97147054.0        3131372450.0         829345164.0        3691032523.0        3006063034.0        4259826321.0
Wiener process for Thermostat # 7        1 F T T  -2.7221417990508723E-01        2928923925.0        1475590831.0        3028549759.0        1729569924.0         123262326.0        1965188850.0         796079799.0        2105258207.0         955365076.0        2923159030.0        4116632677.0        3067683584.0         796079799.0        2105258207.0         955365076.0        2923159030.0        4116632677.0        3067683584.0
Wiener process for Thermostat # 8        1 F T T  -1.3371509559371584E+00        3293786404.0        2324351260.0        4224364702.0        1341956089.0         912321799.0        2697559406.0        3281794178.0        2616230133.0        1457051261.0        2762791137.0        2480527362.0        2282316169.0        3281794178.0        2616230133.0        1457051261.0        2762791137.0        2480527362.0        2282316169.0
Wiener process for Thermostat # 9        1 F T T  -8.7225140957356684E-01         657961678.0        1513147170.0        2219186603.0        4111646695.0         616753226.0        2747528653.0        3777646647.0        1837464056.0        4204654757.0         664239048.0        4190510072.0        2959195122.0        3777646647.0        1837464056.0        4204654757.0         664239048.0        4190510072.0        2959195122.0
Wiener process for Thermostat # 10       1 F T T  -6.2889449580622436E-01          96284293.0        2446379684.0        3801610533.0        2961863039.0        1877110468.0         129512113.0        4215590817.0        3862461878.0        1087200967.0        1544910132.0         936383720.0        1611370123.0        4215590817.0        3862461878.0        1087200967.0        1544910132.0         936383720.0        1611370123.0
Wiener process for Thermostat # 11       1 F T T   5.7191327297384098E-01         909895394.0        1862319182.0        2400367466.0        1201802882.0        2818881371.0          83822050.0        1683636369.0         362165168.0         814316280.0         869382050.0         980203903.0        2062101717.0        1683636369.0         362165168.0         814316280.0         869382050.0         980203903.0        2062101717.0
Wiener process for Thermostat # 12       1 F T T  -2.0098512161557830E-01        4281566709.0        2729512869.0         275332126.0         437149450.0        1041778670.0        1778805263.0         272317999.0         166758548.0         310112982.0         201045826.0        1680231254.0         118290799.0         272317999.0         166758548.0         310112982.0         201045826.0        1680231254.0         118290799.0
Wiener process for Thermostat # 13       1 F T T   9.4560796151122029E-01        3557498645.0        2583014714.0        2425630516.0         920535172.0        3770643442.0         978988578.0        2245755202.0        1652682525.0        2865544364.0         721509566.0         209733568.0         592362218.0        2245755202.0        1652682525.0        2865544364.0         721509566.0         209733568.0         592362218.0